SIRIUS 7.7.0, git hash: https://api.github.com/repos/electronic-structure/SIRIUS/git/ref/tags/v7.7.0
 DBCSR| CPU Multiplication driver                                           BLAS (U)
 DBCSR| Multrec recursion limit                                              512 (U)
 DBCSR| Multiplication stack size                                           1000 (D)
 DBCSR| Maximum elements for images                                    UNLIMITED (U)
 DBCSR| Multiplicative factor virtual images                                   1 (U)
 DBCSR| Use multiplication densification                                       T (D)
 DBCSR| Multiplication size stacks                                             3 (U)
 DBCSR| Use memory pool for CPU allocation                                     F (U)
 DBCSR| Number of 3D layers                                               SINGLE (U)
 DBCSR| Use MPI memory allocation                                              F (U)
 DBCSR| Use RMA algorithm                                                      F (U)
 DBCSR| Use Communication thread                                               T (U)
 DBCSR| Communication thread load                                             75 (D)
 DBCSR| MPI: My process id                                                     0
 DBCSR| MPI: Number of processes                                             192
 DBCSR| OMP: Current number of threads                                         4
 DBCSR| OMP: Max number of threads                                             4
 DBCSR| Split modifier for TAS multiplication algorithm                  1.0E+00 (U)


  **** **** ******  **  PROGRAM STARTED AT               2025-10-27 16:23:15.950
 ***** ** ***  *** **   PROGRAM STARTED ON                                cn0705
 **    ****   ******    PROGRAM STARTED BY                              metdyn02
 ***** **    ** ** **   PROGRAM PROCESS ID                               3439756
  **** **  *******  **  PROGRAM STARTED IN /scratch/hpc-prf-metdyn/metdyn02_Remi
                                           /04_mol/Benchmark_mol_low_scal/aUKBqs
                                           EOTmq69kFe5R_nOg/5k_set_final_qzvp/EJ
                                           EGOP/TZVP/1e-3/9.0

 CP2K| version string:                 CP2K version 2025.2 (Development Version)
 CP2K| source code revision number:                                  git:2a4e9c4
 CP2K| cp2kflags: omp libint fftw3 libxc libgrpp elpa parallel scalapack mpi_f08
 CP2K|             cosma xsmm plumed2 spglib sirius libvori libbqb libvdwxc hdf5
 CP2K| is freely available from                            https://www.cp2k.org/
 CP2K| Program compiled at                      Fri Oct 24 04:52:17 PM CEST 2025
 CP2K| Program compiled on                                                login1
 CP2K| Program compiled for                                                local
 CP2K| Data directory path    /opt/software/pc2/EB-SW/software/CP2K/2025.2-foss-
 CP2K| Input file name                                                    GW.inp

 GLOBAL| Force Environment number                                              1
 GLOBAL| Basis set file name            /pc2/groups/hpc-prf-metdyn/metdyn02_Remi
 GLOBAL| Potential file name            /pc2/groups/hpc-prf-metdyn/metdyn02_Remi
 GLOBAL| MM Potential file name                                     MM_POTENTIAL
 GLOBAL| Coordinate file name                                      __STD_INPUT__
 GLOBAL| Method name                                                        CP2K
 GLOBAL| Project name                                                       MoS2
 GLOBAL| Run type                                                         ENERGY
 GLOBAL| FFT library                                                       FFTW3
 GLOBAL| Diagonalization library                                            ELPA
 GLOBAL| Cholesky decomposition library                                ScaLAPACK
 GLOBAL| DGEMM library                                                      BLAS
 GLOBAL| Minimum number of eigenvectors for ELPA usage                        16
 GLOBAL| Orthonormality check for eigenvectors                          DISABLED
 GLOBAL| Matrix multiplication library                                     COSMA
 GLOBAL| All-to-all communication in single precision                          F
 GLOBAL| FFTs using library dependent lengths                                  F
 GLOBAL| Grid backend                                                       AUTO
 GLOBAL| Global print level                                               MEDIUM
 GLOBAL| MPI I/O enabled                                                       T
 GLOBAL| Total number of message passing processes                           192
 GLOBAL| Number of distributed systems (nodes)                                 4
 GLOBAL| Number of threads for this process                                    4
 GLOBAL| This output is from process                                           0
 GLOBAL| OpenMP stack size per thread (OMP_STACKSIZE)                    default
 GLOBAL| CPU model name                          AMD EPYC 9655 96-Core Processor
 GLOBAL| CPUID                                                              1003

 MEMORY| system memory details [Kb]
 MEMORY|                        rank 0           min           max       average
 MEMORY| MemTotal            791039064     791039056     791039116     791039073
 MEMORY| MemFree             751485808     751456764     751545732     751507316
 MEMORY| Buffers                  3164          3164          3168          3165
 MEMORY| Cached                7812904       7789304       7812904       7797915
 MEMORY| Slab                  2204716       2204716       2223068       2211073
 MEMORY| SReclaimable           940816        932892        940816        935645
 MEMORY| MemLikelyFree       760242692     760183752     760276464     760244041


 *** Fundamental physical constants (SI units) ***

 *** Literature: B. J. Mohr and B. N. Taylor,
 ***             CODATA recommended values of the fundamental physical
 ***             constants: 2006, Web Version 5.1
 ***             http://physics.nist.gov/constants

 Speed of light in vacuum [m/s]                             2.99792458000000E+08
 Magnetic constant or permeability of vacuum [N/A**2]       1.25663706143592E-06
 Electric constant or permittivity of vacuum [F/m]          8.85418781762039E-12
 Planck constant (h) [J*s]                                  6.62606896000000E-34
 Planck constant (h-bar) [J*s]                              1.05457162825177E-34
 Elementary charge [C]                                      1.60217648700000E-19
 Electron mass [kg]                                         9.10938215000000E-31
 Electron g factor [ ]                                     -2.00231930436220E+00
 Proton mass [kg]                                           1.67262163700000E-27
 Fine-structure constant                                    7.29735253760000E-03
 Rydberg constant [1/m]                                     1.09737315685270E+07
 Avogadro constant [1/mol]                                  6.02214179000000E+23
 Boltzmann constant [J/K]                                   1.38065040000000E-23
 Atomic mass unit [kg]                                      1.66053878200000E-27
 Bohr radius [m]                                            5.29177208590000E-11

 *** Conversion factors ***

 [u] -> [a.u.]                                              1.82288848426455E+03
 [Angstrom] -> [Bohr] = [a.u.]                              1.88972613288564E+00
 [a.u.] = [Bohr] -> [Angstrom]                              5.29177208590000E-01
 [a.u.] -> [s]                                              2.41888432650478E-17
 [a.u.] -> [fs]                                             2.41888432650478E-02
 [a.u.] -> [J]                                              4.35974393937059E-18
 [a.u.] -> [N]                                              8.23872205491840E-08
 [a.u.] -> [K]                                              3.15774647902944E+05
 [a.u.] -> [kJ/mol]                                         2.62549961709828E+03
 [a.u.] -> [kcal/mol]                                       6.27509468713739E+02
 [a.u.] -> [Pa]                                             2.94210107994716E+13
 [a.u.] -> [bar]                                            2.94210107994716E+08
 [a.u.] -> [atm]                                            2.90362800883016E+08
 [a.u.] -> [eV]                                             2.72113838565563E+01
 [a.u.] -> [Hz]                                             6.57968392072181E+15
 [a.u.] -> [1/cm] (wave numbers)                            2.19474631370540E+05
 [a.u./Bohr**2] -> [1/cm]                                   5.14048714338585E+03
 

 CELL_TOP| Volume [angstrom^3]:                                     27000.000000
 CELL_TOP| Vector a [angstrom    30.000     0.000     0.000   |a| =    30.000000
 CELL_TOP| Vector b [angstrom     0.000    30.000     0.000   |b| =    30.000000
 CELL_TOP| Vector c [angstrom     0.000     0.000    30.000   |c| =    30.000000
 CELL_TOP| Angle (b,c), alpha [degree]:                                90.000000
 CELL_TOP| Angle (a,c), beta  [degree]:                                90.000000
 CELL_TOP| Angle (a,b), gamma [degree]:                                90.000000
 CELL_TOP| Numerically orthorhombic:                                         YES
 CELL_TOP| Periodicity                                                      NONE

 GENERATE|  Preliminary Number of Bonds generated:                             0
 GENERATE|  Achieved consistency in connectivity generation.

 CELL| Volume [angstrom^3]:                                         27000.000000
 CELL| Vector a [angstrom]:      30.000     0.000     0.000   |a| =    30.000000
 CELL| Vector b [angstrom]:       0.000    30.000     0.000   |b| =    30.000000
 CELL| Vector c [angstrom]:       0.000     0.000    30.000   |c| =    30.000000
 CELL| Angle (b,c), alpha [degree]:                                    90.000000
 CELL| Angle (a,c), beta  [degree]:                                    90.000000
 CELL| Angle (a,b), gamma [degree]:                                    90.000000
 CELL| Numerically orthorhombic:                                             YES
 CELL| Periodicity                                                          NONE

 CELL_REF| Volume [angstrom^3]:                                     27000.000000
 CELL_REF| Vector a [angstrom    30.000     0.000     0.000   |a| =    30.000000
 CELL_REF| Vector b [angstrom     0.000    30.000     0.000   |b| =    30.000000
 CELL_REF| Vector c [angstrom     0.000     0.000    30.000   |c| =    30.000000
 CELL_REF| Angle (b,c), alpha [degree]:                                90.000000
 CELL_REF| Angle (a,c), beta  [degree]:                                90.000000
 CELL_REF| Angle (a,b), gamma [degree]:                                90.000000
 CELL_REF| Numerically orthorhombic:                                         YES
 CELL_REF| Periodicity                                                      NONE

 *******************************************************************************
 *******************************************************************************
 **                                                                           **
 **     #####                         ##              ##                      **
 **    ##   ##            ##          ##              ##                      **
 **   ##     ##                       ##            ######                    **
 **   ##     ##  ##   ##  ##   #####  ##  ##   ####   ##    #####    #####    **
 **   ##     ##  ##   ##  ##  ##      ## ##   ##      ##   ##   ##  ##   ##   **
 **   ##  ## ##  ##   ##  ##  ##      ####     ###    ##   ######   ######    **
 **    ##  ###   ##   ##  ##  ##      ## ##      ##   ##   ##       ##        **
 **     #######   #####   ##   #####  ##  ##  ####    ##    #####   ##        **
 **           ##                                                    ##        **
 **                                                                           **
 **                                                ... make the atoms dance   **
 **                                                                           **
 **            Copyright (C) by CP2K developers group (2000-2025)             **
 **                      J. Chem. Phys. 152, 194103 (2020)                    **
 **                                                                           **
 *******************************************************************************

 DFT| Spin restricted Kohn-Sham (RKS) calculation                            RKS
 DFT| Multiplicity                                                             1
 DFT| Number of spin states                                                    1
 DFT| Charge                                                                   0
 DFT| Self-interaction correction (SIC)                                       NO
 DFT| Cutoffs: density                                              1.000000E-10
 DFT|          gradient                                             1.000000E-10
 DFT|          tau                                                  1.000000E-10
 DFT|          cutoff_smoothing_range                               0.000000E+00
 DFT| XC density smoothing                                                  NONE
 DFT| XC derivatives                                                          PW

 FUNCTIONAL| PBE:
 FUNCTIONAL| J.P.Perdew, K.Burke, M.Ernzerhof, Phys. Rev. Letter, vol. 77, n 18,
 FUNCTIONAL|  pp. 3865-3868, (1996)sx=0.750sc=1.000{spin unpolarized}           


 QS| Method:                                                                GAPW
 QS| Density plane wave grid type                        NON-SPHERICAL FULLSPACE
 QS| Number of grid levels:                                                    4
 QS| Density cutoff [a.u.]:                                                250.0
 QS| Multi grid cutoff [a.u.]: 1) grid level                               250.0
 QS|                           2) grid level                                83.3
 QS|                           3) grid level                                27.8
 QS|                           4) grid level                                 9.3
 QS| Grid level progression factor:                                          3.0
 QS| Relative density cutoff [a.u.]:                                        50.0
 QS| Interaction thresholds: eps_pgf_orb:                                1.0E-12
 QS|                         eps_filter_matrix:                          0.0E+00
 QS|                         eps_core_charge:                            1.0E-14
 QS|                         eps_rho_gspace:                             1.0E-12
 QS|                         eps_rho_rspace:                             1.0E-12
 QS|                         eps_gvg_rspace:                             1.0E-06
 QS|                         eps_ppl:                                    1.0E-02
 QS|                         eps_ppnl:                                   1.0E-08
 QS| GAPW|      One center basis from orbital basis primitives
 QS| GAPW|                   eps_fit:                                    1.0E-04
 QS| GAPW|                   eps_iso:                                    1.0E-12
 QS| GAPW|                   eps_svd:                                    1.0E-08
 QS| GAPW|                   eps_cpc:                                    1.0E-12
 QS| GAPW|   atom-r-grid: quadrature:                                     GC_LOG
 QS| GAPW|      atom-s-grid:  max l :                                          8
 QS| GAPW|      max_l_rho0 :                                                   2


 ATOMIC KIND INFORMATION

  1. Atomic kind: N                                     Number of atoms:       6

     Orbital Basis Set                                        aug-TZVP-MOLOPT-ae

       Number of orbital shell sets:                                           2
       Number of orbital shells:                                              16
       Number of primitive Cartesian functions:                               13
       Number of Cartesian basis functions:                                   71
       Number of spherical basis functions:                                   56
       Norm type:                                                              2

       Normalised Cartesian orbitals:

                        Set   Shell   Orbital            Exponent    Coefficient

                          1       1    1s                0.045000       0.000000
                                                         0.113512       0.014500
                                                         0.322032       0.036074
                                                         0.930550      -0.061635
                                                         2.987378       0.535699
                                                         8.608625       2.378505
                                                        49.270190       0.802518

                          1       2    2s                0.045000       0.000000
                                                         0.113512       0.032692
                                                         0.322032       0.082974
                                                         0.930550       0.396674
                                                         2.987378       0.054918
                                                         8.608625      -0.061481
                                                        49.270190      -0.622920

                          1       3    3s                0.045000       0.000000
                                                         0.113512       0.047996
                                                         0.322032       0.306069
                                                         0.930550      -0.408076
                                                         2.987378      -0.229943
                                                         8.608625      -0.870010
                                                        49.270190      -0.366977

                          1       4    4s                0.045000       0.000000
                                                         0.113512       0.171213
                                                         0.322032      -0.186943
                                                         0.930550      -0.188982
                                                         2.987378       0.637930
                                                         8.608625      -0.961511
                                                        49.270190      -7.166333

                          1       5    5s                0.045000       0.096440
                                                         0.113512      -0.064027
                                                         0.322032      -0.041902
                                                         0.930550       0.111692
                                                         2.987378       0.000000
                                                         8.608625       0.000000
                                                        49.270190       0.000000

                          1       6    2px               0.045000       0.000000
                                                         0.113512       0.006367
                                                         0.322032       0.040684
                                                         0.930550       0.811118
                                                         2.987378       1.750760
                                                         8.608625       1.288759
                                                        49.270190      12.161855
                          1       6    2py               0.045000       0.000000
                                                         0.113512       0.006367
                                                         0.322032       0.040684
                                                         0.930550       0.811118
                                                         2.987378       1.750760
                                                         8.608625       1.288759
                                                        49.270190      12.161855
                          1       6    2pz               0.045000       0.000000
                                                         0.113512       0.006367
                                                         0.322032       0.040684
                                                         0.930550       0.811118
                                                         2.987378       1.750760
                                                         8.608625       1.288759
                                                        49.270190      12.161855

                          1       7    3px               0.045000       0.000000
                                                         0.113512       0.011134
                                                         0.322032       0.344073
                                                         0.930550      -0.153789
                                                         2.987378      -0.764833
                                                         8.608625       0.375399
                                                        49.270190     -28.403920
                          1       7    3py               0.045000       0.000000
                                                         0.113512       0.011134
                                                         0.322032       0.344073
                                                         0.930550      -0.153789
                                                         2.987378      -0.764833
                                                         8.608625       0.375399
                                                        49.270190     -28.403920
                          1       7    3pz               0.045000       0.000000
                                                         0.113512       0.011134
                                                         0.322032       0.344073
                                                         0.930550      -0.153789
                                                         2.987378      -0.764833
                                                         8.608625       0.375399
                                                        49.270190     -28.403920

                          1       8    4px               0.045000       0.000000
                                                         0.113512       0.104427
                                                         0.322032      -0.047567
                                                         0.930550      -0.121777
                                                         2.987378      -0.049280
                                                         8.608625      -0.402261
                                                        49.270190       8.328837
                          1       8    4py               0.045000       0.000000
                                                         0.113512       0.104427
                                                         0.322032      -0.047567
                                                         0.930550      -0.121777
                                                         2.987378      -0.049280
                                                         8.608625      -0.402261
                                                        49.270190       8.328837
                          1       8    4pz               0.045000       0.000000
                                                         0.113512       0.104427
                                                         0.322032      -0.047567
                                                         0.930550      -0.121777
                                                         2.987378      -0.049280
                                                         8.608625      -0.402261
                                                        49.270190       8.328837

                          1       9    5px               0.045000       0.002493
                                                         0.113512      -0.112828
                                                         0.322032       0.052724
                                                         0.930550       0.295283
                                                         2.987378       0.000000
                                                         8.608625       0.000000
                                                        49.270190       0.000000
                          1       9    5py               0.045000       0.002493
                                                         0.113512      -0.112828
                                                         0.322032       0.052724
                                                         0.930550       0.295283
                                                         2.987378       0.000000
                                                         8.608625       0.000000
                                                        49.270190       0.000000
                          1       9    5pz               0.045000       0.002493
                                                         0.113512      -0.112828
                                                         0.322032       0.052724
                                                         0.930550       0.295283
                                                         2.987378       0.000000
                                                         8.608625       0.000000
                                                        49.270190       0.000000

                          1      10    3dx2              0.045000       0.000000
                                                         0.113512       0.008426
                                                         0.322032       0.004138
                                                         0.930550       0.975526
                                                         2.987378       4.861216
                                                         8.608625     -15.504622
                                                        49.270190     -47.156995
                          1      10    3dxy              0.045000       0.000000
                                                         0.113512       0.014594
                                                         0.322032       0.007167
                                                         0.930550       1.689661
                                                         2.987378       8.419873
                                                         8.608625     -26.854794
                                                        49.270190     -81.678311
                          1      10    3dxz              0.045000       0.000000
                                                         0.113512       0.014594
                                                         0.322032       0.007167
                                                         0.930550       1.689661
                                                         2.987378       8.419873
                                                         8.608625     -26.854794
                                                        49.270190     -81.678311
                          1      10    3dy2              0.045000       0.000000
                                                         0.113512       0.008426
                                                         0.322032       0.004138
                                                         0.930550       0.975526
                                                         2.987378       4.861216
                                                         8.608625     -15.504622
                                                        49.270190     -47.156995
                          1      10    3dyz              0.045000       0.000000
                                                         0.113512       0.014594
                                                         0.322032       0.007167
                                                         0.930550       1.689661
                                                         2.987378       8.419873
                                                         8.608625     -26.854794
                                                        49.270190     -81.678311
                          1      10    3dz2              0.045000       0.000000
                                                         0.113512       0.008426
                                                         0.322032       0.004138
                                                         0.930550       0.975526
                                                         2.987378       4.861216
                                                         8.608625     -15.504622
                                                        49.270190     -47.156995

                          1      11    4dx2              0.045000       0.000000
                                                         0.113512      -0.007657
                                                         0.322032       0.207542
                                                         0.930550       0.469670
                                                         2.987378      -3.348764
                                                         8.608625      17.703387
                                                        49.270190      69.517765
                          1      11    4dxy              0.045000       0.000000
                                                         0.113512      -0.013263
                                                         0.322032       0.359472
                                                         0.930550       0.813493
                                                         2.987378      -5.800229
                                                         8.608625      30.663165
                                                        49.270190     120.408301
                          1      11    4dxz              0.045000       0.000000
                                                         0.113512      -0.013263
                                                         0.322032       0.359472
                                                         0.930550       0.813493
                                                         2.987378      -5.800229
                                                         8.608625      30.663165
                                                        49.270190     120.408301
                          1      11    4dy2              0.045000       0.000000
                                                         0.113512      -0.007657
                                                         0.322032       0.207542
                                                         0.930550       0.469670
                                                         2.987378      -3.348764
                                                         8.608625      17.703387
                                                        49.270190      69.517765
                          1      11    4dyz              0.045000       0.000000
                                                         0.113512      -0.013263
                                                         0.322032       0.359472
                                                         0.930550       0.813493
                                                         2.987378      -5.800229
                                                         8.608625      30.663165
                                                        49.270190     120.408301
                          1      11    4dz2              0.045000       0.000000
                                                         0.113512      -0.007657
                                                         0.322032       0.207542
                                                         0.930550       0.469670
                                                         2.987378      -3.348764
                                                         8.608625      17.703387
                                                        49.270190      69.517765

                          1      12    5dx2              0.045000      -0.000996
                                                         0.113512       0.002353
                                                         0.322032       0.164897
                                                         0.930550       0.509235
                                                         2.987378       0.000000
                                                         8.608625       0.000000
                                                        49.270190       0.000000
                          1      12    5dxy              0.045000      -0.001726
                                                         0.113512       0.004075
                                                         0.322032       0.285610
                                                         0.930550       0.882020
                                                         2.987378       0.000000
                                                         8.608625       0.000000
                                                        49.270190       0.000000
                          1      12    5dxz              0.045000      -0.001726
                                                         0.113512       0.004075
                                                         0.322032       0.285610
                                                         0.930550       0.882020
                                                         2.987378       0.000000
                                                         8.608625       0.000000
                                                        49.270190       0.000000
                          1      12    5dy2              0.045000      -0.000996
                                                         0.113512       0.002353
                                                         0.322032       0.164897
                                                         0.930550       0.509235
                                                         2.987378       0.000000
                                                         8.608625       0.000000
                                                        49.270190       0.000000
                          1      12    5dyz              0.045000      -0.001726
                                                         0.113512       0.004075
                                                         0.322032       0.285610
                                                         0.930550       0.882020
                                                         2.987378       0.000000
                                                         8.608625       0.000000
                                                        49.270190       0.000000
                          1      12    5dz2              0.045000      -0.000996
                                                         0.113512       0.002353
                                                         0.322032       0.164897
                                                         0.930550       0.509235
                                                         2.987378       0.000000
                                                         8.608625       0.000000
                                                        49.270190       0.000000

                          1      13    4fx3              0.045000       0.000000
                                                         0.113512       0.000350
                                                         0.322032       0.026408
                                                         0.930550       1.022795
                                                         2.987378       1.277764
                                                         8.608625      -7.108652
                                                        49.270190     240.939937
                          1      13    4fx2y             0.045000       0.000000
                                                         0.113512       0.000782
                                                         0.322032       0.059050
                                                         0.930550       2.287038
                                                         2.987378       2.857166
                                                         8.608625     -15.895429
                                                        49.270190     538.758077
                          1      13    4fx2z             0.045000       0.000000
                                                         0.113512       0.000782
                                                         0.322032       0.059050
                                                         0.930550       2.287038
                                                         2.987378       2.857166
                                                         8.608625     -15.895429
                                                        49.270190     538.758077
                          1      13    4fxy2             0.045000       0.000000
                                                         0.113512       0.000782
                                                         0.322032       0.059050
                                                         0.930550       2.287038
                                                         2.987378       2.857166
                                                         8.608625     -15.895429
                                                        49.270190     538.758077
                          1      13    4fxyz             0.045000       0.000000
                                                         0.113512       0.001354
                                                         0.322032       0.102278
                                                         0.930550       3.961267
                                                         2.987378       4.948757
                                                         8.608625     -27.531691
                                                        49.270190     933.156362
                          1      13    4fxz2             0.045000       0.000000
                                                         0.113512       0.000782
                                                         0.322032       0.059050
                                                         0.930550       2.287038
                                                         2.987378       2.857166
                                                         8.608625     -15.895429
                                                        49.270190     538.758077
                          1      13    4fy3              0.045000       0.000000
                                                         0.113512       0.000350
                                                         0.322032       0.026408
                                                         0.930550       1.022795
                                                         2.987378       1.277764
                                                         8.608625      -7.108652
                                                        49.270190     240.939937
                          1      13    4fy2z             0.045000       0.000000
                                                         0.113512       0.000782
                                                         0.322032       0.059050
                                                         0.930550       2.287038
                                                         2.987378       2.857166
                                                         8.608625     -15.895429
                                                        49.270190     538.758077
                          1      13    4fyz2             0.045000       0.000000
                                                         0.113512       0.000782
                                                         0.322032       0.059050
                                                         0.930550       2.287038
                                                         2.987378       2.857166
                                                         8.608625     -15.895429
                                                        49.270190     538.758077
                          1      13    4fz3              0.045000       0.000000
                                                         0.113512       0.000350
                                                         0.322032       0.026408
                                                         0.930550       1.022795
                                                         2.987378       1.277764
                                                         8.608625      -7.108652
                                                        49.270190     240.939937

                          1      14    5fx3              0.045000       0.000031
                                                         0.113512       0.000543
                                                         0.322032       0.086041
                                                         0.930550       0.419256
                                                         2.987378       0.000000
                                                         8.608625       0.000000
                                                        49.270190       0.000000
                          1      14    5fx2y             0.045000       0.000070
                                                         0.113512       0.001214
                                                         0.322032       0.192393
                                                         0.930550       0.937485
                                                         2.987378       0.000000
                                                         8.608625       0.000000
                                                        49.270190       0.000000
                          1      14    5fx2z             0.045000       0.000070
                                                         0.113512       0.001214
                                                         0.322032       0.192393
                                                         0.930550       0.937485
                                                         2.987378       0.000000
                                                         8.608625       0.000000
                                                        49.270190       0.000000
                          1      14    5fxy2             0.045000       0.000070
                                                         0.113512       0.001214
                                                         0.322032       0.192393
                                                         0.930550       0.937485
                                                         2.987378       0.000000
                                                         8.608625       0.000000
                                                        49.270190       0.000000
                          1      14    5fxyz             0.045000       0.000121
                                                         0.113512       0.002103
                                                         0.322032       0.333234
                                                         0.930550       1.623771
                                                         2.987378       0.000000
                                                         8.608625       0.000000
                                                        49.270190       0.000000
                          1      14    5fxz2             0.045000       0.000070
                                                         0.113512       0.001214
                                                         0.322032       0.192393
                                                         0.930550       0.937485
                                                         2.987378       0.000000
                                                         8.608625       0.000000
                                                        49.270190       0.000000
                          1      14    5fy3              0.045000       0.000031
                                                         0.113512       0.000543
                                                         0.322032       0.086041
                                                         0.930550       0.419256
                                                         2.987378       0.000000
                                                         8.608625       0.000000
                                                        49.270190       0.000000
                          1      14    5fy2z             0.045000       0.000070
                                                         0.113512       0.001214
                                                         0.322032       0.192393
                                                         0.930550       0.937485
                                                         2.987378       0.000000
                                                         8.608625       0.000000
                                                        49.270190       0.000000
                          1      14    5fyz2             0.045000       0.000070
                                                         0.113512       0.001214
                                                         0.322032       0.192393
                                                         0.930550       0.937485
                                                         2.987378       0.000000
                                                         8.608625       0.000000
                                                        49.270190       0.000000
                          1      14    5fz3              0.045000       0.000031
                                                         0.113512       0.000543
                                                         0.322032       0.086041
                                                         0.930550       0.419256
                                                         2.987378       0.000000
                                                         8.608625       0.000000
                                                        49.270190       0.000000

                          1      15    5gx4              0.045000       0.000051
                                                         0.113512       0.002105
                                                         0.322032       0.008605
                                                         0.930550       0.058205
                                                         2.987378       0.000000
                                                         8.608625       0.000000
                                                        49.270190       0.000000
                          1      15    5gx3y             0.045000       0.000134
                                                         0.113512       0.005569
                                                         0.322032       0.022768
                                                         0.930550       0.153995
                                                         2.987378       0.000000
                                                         8.608625       0.000000
                                                        49.270190       0.000000
                          1      15    5gx3z             0.045000       0.000134
                                                         0.113512       0.005569
                                                         0.322032       0.022768
                                                         0.930550       0.153995
                                                         2.987378       0.000000
                                                         8.608625       0.000000
                                                        49.270190       0.000000
                          1      15    5gx2y2            0.045000       0.000173
                                                         0.113512       0.007189
                                                         0.322032       0.029393
                                                         0.930550       0.198807
                                                         2.987378       0.000000
                                                         8.608625       0.000000
                                                        49.270190       0.000000
                          1      15    5gx2yz            0.045000       0.000300
                                                         0.113512       0.012452
                                                         0.322032       0.050910
                                                         0.930550       0.344344
                                                         2.987378       0.000000
                                                         8.608625       0.000000
                                                        49.270190       0.000000
                          1      15    5gx2z2            0.045000       0.000173
                                                         0.113512       0.007189
                                                         0.322032       0.029393
                                                         0.930550       0.198807
                                                         2.987378       0.000000
                                                         8.608625       0.000000
                                                        49.270190       0.000000
                          1      15    5gxy3             0.045000       0.000134
                                                         0.113512       0.005569
                                                         0.322032       0.022768
                                                         0.930550       0.153995
                                                         2.987378       0.000000
                                                         8.608625       0.000000
                                                        49.270190       0.000000
                          1      15    5gxy2z            0.045000       0.000300
                                                         0.113512       0.012452
                                                         0.322032       0.050910
                                                         0.930550       0.344344
                                                         2.987378       0.000000
                                                         8.608625       0.000000
                                                        49.270190       0.000000
                          1      15    5gxyz2            0.045000       0.000300
                                                         0.113512       0.012452
                                                         0.322032       0.050910
                                                         0.930550       0.344344
                                                         2.987378       0.000000
                                                         8.608625       0.000000
                                                        49.270190       0.000000
                          1      15    5gxz3             0.045000       0.000134
                                                         0.113512       0.005569
                                                         0.322032       0.022768
                                                         0.930550       0.153995
                                                         2.987378       0.000000
                                                         8.608625       0.000000
                                                        49.270190       0.000000
                          1      15    5gy4              0.045000       0.000051
                                                         0.113512       0.002105
                                                         0.322032       0.008605
                                                         0.930550       0.058205
                                                         2.987378       0.000000
                                                         8.608625       0.000000
                                                        49.270190       0.000000
                          1      15    5gy3z             0.045000       0.000134
                                                         0.113512       0.005569
                                                         0.322032       0.022768
                                                         0.930550       0.153995
                                                         2.987378       0.000000
                                                         8.608625       0.000000
                                                        49.270190       0.000000
                          1      15    5gy2z2            0.045000       0.000173
                                                         0.113512       0.007189
                                                         0.322032       0.029393
                                                         0.930550       0.198807
                                                         2.987378       0.000000
                                                         8.608625       0.000000
                                                        49.270190       0.000000
                          1      15    5gyz3             0.045000       0.000134
                                                         0.113512       0.005569
                                                         0.322032       0.022768
                                                         0.930550       0.153995
                                                         2.987378       0.000000
                                                         8.608625       0.000000
                                                        49.270190       0.000000
                          1      15    5gz4              0.045000       0.000051
                                                         0.113512       0.002105
                                                         0.322032       0.008605
                                                         0.930550       0.058205
                                                         2.987378       0.000000
                                                         8.608625       0.000000
                                                        49.270190       0.000000

                          2       1    1s            19730.758242       0.654856
                                                      2958.006020       1.769548
                                                       673.387518       2.322723
                                                       190.675174       4.547417
                                                        62.366448       3.527190
                                                        22.833858       5.352733

     RI Auxiliary Basis Set             RI_aug-TZVP-MOLOPT-ae_N_RI_055_s_p_d_f_g

       Number of orbital shell sets:                                          17
       Number of orbital shells:                                              17
       Number of primitive Cartesian functions:                               17
       Number of Cartesian basis functions:                                   69
       Number of spherical basis functions:                                   55
       Norm type:                                                              2

       Normalised Cartesian orbitals:

                        Set   Shell   Orbital            Exponent    Coefficient

                          1       1    1s                0.085278       0.112471

                          2       1    2s                0.280813       0.274931

                          3       1    8px               0.394053       0.445024
                          3       1    8py               0.394053       0.445024
                          3       1    8pz               0.394053       0.445024

                          4       1   15fx3              0.816049       0.931787
                          4       1   15fx2y             0.816049       2.083538
                          4       1   15fx2z             0.816049       2.083538
                          4       1   15fxy2             0.816049       2.083538
                          4       1   15fxyz             0.816049       3.608794
                          4       1   15fxz2             0.816049       2.083538
                          4       1   15fy3              0.816049       0.931787
                          4       1   15fy2z             0.816049       2.083538
                          4       1   15fyz2             0.816049       2.083538
                          4       1   15fz3              0.816049       0.931787

                          5       1    9px               0.832049       1.132730
                          5       1    9py               0.832049       1.132730
                          5       1    9pz               0.832049       1.132730

                          6       1   13dx2              0.840054       1.213242
                          6       1   13dxy              0.840054       2.101396
                          6       1   13dxz              0.840054       2.101396
                          6       1   13dy2              0.840054       1.213242
                          6       1   13dyz              0.840054       2.101396
                          6       1   13dz2              0.840054       1.213242

                          7       1    3s                0.924686       0.672057

                          8       1   17gx4              1.249896       2.055125
                          8       1   17gx3y             1.249896       5.437349
                          8       1   17gx3z             1.249896       5.437349
                          8       1   17gx2y2            1.249896       7.019588
                          8       1   17gx2yz            1.249896      12.158283
                          8       1   17gx2z2            1.249896       7.019588
                          8       1   17gxy3             1.249896       5.437349
                          8       1   17gxy2z            1.249896      12.158283
                          8       1   17gxyz2            1.249896      12.158283
                          8       1   17gxz3             1.249896       5.437349
                          8       1   17gy4              1.249896       2.055125
                          8       1   17gy3z             1.249896       5.437349
                          8       1   17gy2z2            1.249896       7.019588
                          8       1   17gyz3             1.249896       5.437349
                          8       1   17gz4              1.249896       2.055125

                          9       1   16fx3              2.156479       8.296241
                          9       1   16fx2y             2.156479      18.550959
                          9       1   16fx2z             2.156479      18.550959
                          9       1   16fxy2             2.156479      18.550959
                          9       1   16fxyz             2.156479      32.131204
                          9       1   16fxz2             2.156479      18.550959
                          9       1   16fy3              2.156479       8.296241
                          9       1   16fy2z             2.156479      18.550959
                          9       1   16fyz2             2.156479      18.550959
                          9       1   16fz3              2.156479       8.296241

                         10       1   14dx2              2.180604       6.440488
                         10       1   14dxy              2.180604      11.155253
                         10       1   14dxz              2.180604      11.155253
                         10       1   14dy2              2.180604       6.440488
                         10       1   14dyz              2.180604      11.155253
                         10       1   14dz2              2.180604       6.440488

                         11       1   10px               2.373940       4.200271
                         11       1   10py               2.373940       4.200271
                         11       1   10pz               2.373940       4.200271

                         12       1    4s                3.044887       1.642814

                         13       1   11px               7.309528      17.131751
                         13       1   11py               7.309528      17.131751
                         13       1   11pz               7.309528      17.131751

                         14       1    5s               10.026483       4.015795

                         15       1   12px              22.001227      67.920163
                         15       1   12py              22.001227      67.920163
                         15       1   12pz              22.001227      67.920163

                         16       1    6s               33.016147       9.816460

                         17       1    7s              108.718637      23.995958

       Atomic covalent radius [Angstrom]:                                  0.750

       Atomic van der Waals radius [Angstrom]:                             1.550

     The atoms of this atomic kind are PAW atoms (GAPW):
       Hard Gaussian function radius:                                      1.512
       Rho0 radius:                                                        1.512
       Maximum GTO radius used for PAW projector construction:            24.566

     GAPW Soft Basis Set                                 aug-TZVP-MOLOPT-ae_soft

       Number of orbital shell sets:                                           2
       Number of orbital shells:                                              16
       Number of primitive Cartesian functions:                                5
       Number of Cartesian basis functions:                                   71
       Number of spherical basis functions:                                   56
       Norm type:                                                              2

       Normalised Cartesian orbitals:

                        Set   Shell   Orbital            Exponent    Coefficient

                          1       1    1s                0.045000       0.000000
                                                         0.113512       0.014500
                                                         0.322032       0.036074
                                                         0.930550      -0.061635
                                                         2.987378       0.535699

                          1       2    2s                0.045000       0.000000
                                                         0.113512       0.032692
                                                         0.322032       0.082974
                                                         0.930550       0.396674
                                                         2.987378       0.054918

                          1       3    3s                0.045000       0.000000
                                                         0.113512       0.047996
                                                         0.322032       0.306069
                                                         0.930550      -0.408076
                                                         2.987378      -0.229943

                          1       4    4s                0.045000       0.000000
                                                         0.113512       0.171213
                                                         0.322032      -0.186943
                                                         0.930550      -0.188982
                                                         2.987378       0.637930

                          1       5    5s                0.045000       0.096440
                                                         0.113512      -0.064027
                                                         0.322032      -0.041902
                                                         0.930550       0.111692
                                                         2.987378       0.000000

                          1       6    2px               0.045000       0.000000
                                                         0.113512       0.006367
                                                         0.322032       0.040684
                                                         0.930550       0.811118
                                                         2.987378       1.750760
                          1       6    2py               0.045000       0.000000
                                                         0.113512       0.006367
                                                         0.322032       0.040684
                                                         0.930550       0.811118
                                                         2.987378       1.750760
                          1       6    2pz               0.045000       0.000000
                                                         0.113512       0.006367
                                                         0.322032       0.040684
                                                         0.930550       0.811118
                                                         2.987378       1.750760

                          1       7    3px               0.045000       0.000000
                                                         0.113512       0.011134
                                                         0.322032       0.344073
                                                         0.930550      -0.153789
                                                         2.987378      -0.764833
                          1       7    3py               0.045000       0.000000
                                                         0.113512       0.011134
                                                         0.322032       0.344073
                                                         0.930550      -0.153789
                                                         2.987378      -0.764833
                          1       7    3pz               0.045000       0.000000
                                                         0.113512       0.011134
                                                         0.322032       0.344073
                                                         0.930550      -0.153789
                                                         2.987378      -0.764833

                          1       8    4px               0.045000       0.000000
                                                         0.113512       0.104427
                                                         0.322032      -0.047567
                                                         0.930550      -0.121777
                                                         2.987378      -0.049280
                          1       8    4py               0.045000       0.000000
                                                         0.113512       0.104427
                                                         0.322032      -0.047567
                                                         0.930550      -0.121777
                                                         2.987378      -0.049280
                          1       8    4pz               0.045000       0.000000
                                                         0.113512       0.104427
                                                         0.322032      -0.047567
                                                         0.930550      -0.121777
                                                         2.987378      -0.049280

                          1       9    5px               0.045000       0.002493
                                                         0.113512      -0.112828
                                                         0.322032       0.052724
                                                         0.930550       0.295283
                                                         2.987378       0.000000
                          1       9    5py               0.045000       0.002493
                                                         0.113512      -0.112828
                                                         0.322032       0.052724
                                                         0.930550       0.295283
                                                         2.987378       0.000000
                          1       9    5pz               0.045000       0.002493
                                                         0.113512      -0.112828
                                                         0.322032       0.052724
                                                         0.930550       0.295283
                                                         2.987378       0.000000

                          1      10    3dx2              0.045000       0.000000
                                                         0.113512       0.008426
                                                         0.322032       0.004138
                                                         0.930550       0.975526
                                                         2.987378       4.861216
                          1      10    3dxy              0.045000       0.000000
                                                         0.113512       0.014594
                                                         0.322032       0.007167
                                                         0.930550       1.689661
                                                         2.987378       8.419873
                          1      10    3dxz              0.045000       0.000000
                                                         0.113512       0.014594
                                                         0.322032       0.007167
                                                         0.930550       1.689661
                                                         2.987378       8.419873
                          1      10    3dy2              0.045000       0.000000
                                                         0.113512       0.008426
                                                         0.322032       0.004138
                                                         0.930550       0.975526
                                                         2.987378       4.861216
                          1      10    3dyz              0.045000       0.000000
                                                         0.113512       0.014594
                                                         0.322032       0.007167
                                                         0.930550       1.689661
                                                         2.987378       8.419873
                          1      10    3dz2              0.045000       0.000000
                                                         0.113512       0.008426
                                                         0.322032       0.004138
                                                         0.930550       0.975526
                                                         2.987378       4.861216

                          1      11    4dx2              0.045000       0.000000
                                                         0.113512      -0.007657
                                                         0.322032       0.207542
                                                         0.930550       0.469670
                                                         2.987378      -3.348764
                          1      11    4dxy              0.045000       0.000000
                                                         0.113512      -0.013263
                                                         0.322032       0.359472
                                                         0.930550       0.813493
                                                         2.987378      -5.800229
                          1      11    4dxz              0.045000       0.000000
                                                         0.113512      -0.013263
                                                         0.322032       0.359472
                                                         0.930550       0.813493
                                                         2.987378      -5.800229
                          1      11    4dy2              0.045000       0.000000
                                                         0.113512      -0.007657
                                                         0.322032       0.207542
                                                         0.930550       0.469670
                                                         2.987378      -3.348764
                          1      11    4dyz              0.045000       0.000000
                                                         0.113512      -0.013263
                                                         0.322032       0.359472
                                                         0.930550       0.813493
                                                         2.987378      -5.800229
                          1      11    4dz2              0.045000       0.000000
                                                         0.113512      -0.007657
                                                         0.322032       0.207542
                                                         0.930550       0.469670
                                                         2.987378      -3.348764

                          1      12    5dx2              0.045000      -0.000996
                                                         0.113512       0.002353
                                                         0.322032       0.164897
                                                         0.930550       0.509235
                                                         2.987378       0.000000
                          1      12    5dxy              0.045000      -0.001726
                                                         0.113512       0.004075
                                                         0.322032       0.285610
                                                         0.930550       0.882020
                                                         2.987378       0.000000
                          1      12    5dxz              0.045000      -0.001726
                                                         0.113512       0.004075
                                                         0.322032       0.285610
                                                         0.930550       0.882020
                                                         2.987378       0.000000
                          1      12    5dy2              0.045000      -0.000996
                                                         0.113512       0.002353
                                                         0.322032       0.164897
                                                         0.930550       0.509235
                                                         2.987378       0.000000
                          1      12    5dyz              0.045000      -0.001726
                                                         0.113512       0.004075
                                                         0.322032       0.285610
                                                         0.930550       0.882020
                                                         2.987378       0.000000
                          1      12    5dz2              0.045000      -0.000996
                                                         0.113512       0.002353
                                                         0.322032       0.164897
                                                         0.930550       0.509235
                                                         2.987378       0.000000

                          1      13    4fx3              0.045000       0.000000
                                                         0.113512       0.000350
                                                         0.322032       0.026408
                                                         0.930550       1.022795
                                                         2.987378       1.277764
                          1      13    4fx2y             0.045000       0.000000
                                                         0.113512       0.000782
                                                         0.322032       0.059050
                                                         0.930550       2.287038
                                                         2.987378       2.857166
                          1      13    4fx2z             0.045000       0.000000
                                                         0.113512       0.000782
                                                         0.322032       0.059050
                                                         0.930550       2.287038
                                                         2.987378       2.857166
                          1      13    4fxy2             0.045000       0.000000
                                                         0.113512       0.000782
                                                         0.322032       0.059050
                                                         0.930550       2.287038
                                                         2.987378       2.857166
                          1      13    4fxyz             0.045000       0.000000
                                                         0.113512       0.001354
                                                         0.322032       0.102278
                                                         0.930550       3.961267
                                                         2.987378       4.948757
                          1      13    4fxz2             0.045000       0.000000
                                                         0.113512       0.000782
                                                         0.322032       0.059050
                                                         0.930550       2.287038
                                                         2.987378       2.857166
                          1      13    4fy3              0.045000       0.000000
                                                         0.113512       0.000350
                                                         0.322032       0.026408
                                                         0.930550       1.022795
                                                         2.987378       1.277764
                          1      13    4fy2z             0.045000       0.000000
                                                         0.113512       0.000782
                                                         0.322032       0.059050
                                                         0.930550       2.287038
                                                         2.987378       2.857166
                          1      13    4fyz2             0.045000       0.000000
                                                         0.113512       0.000782
                                                         0.322032       0.059050
                                                         0.930550       2.287038
                                                         2.987378       2.857166
                          1      13    4fz3              0.045000       0.000000
                                                         0.113512       0.000350
                                                         0.322032       0.026408
                                                         0.930550       1.022795
                                                         2.987378       1.277764

                          1      14    5fx3              0.045000       0.000031
                                                         0.113512       0.000543
                                                         0.322032       0.086041
                                                         0.930550       0.419256
                                                         2.987378       0.000000
                          1      14    5fx2y             0.045000       0.000070
                                                         0.113512       0.001214
                                                         0.322032       0.192393
                                                         0.930550       0.937485
                                                         2.987378       0.000000
                          1      14    5fx2z             0.045000       0.000070
                                                         0.113512       0.001214
                                                         0.322032       0.192393
                                                         0.930550       0.937485
                                                         2.987378       0.000000
                          1      14    5fxy2             0.045000       0.000070
                                                         0.113512       0.001214
                                                         0.322032       0.192393
                                                         0.930550       0.937485
                                                         2.987378       0.000000
                          1      14    5fxyz             0.045000       0.000121
                                                         0.113512       0.002103
                                                         0.322032       0.333234
                                                         0.930550       1.623771
                                                         2.987378       0.000000
                          1      14    5fxz2             0.045000       0.000070
                                                         0.113512       0.001214
                                                         0.322032       0.192393
                                                         0.930550       0.937485
                                                         2.987378       0.000000
                          1      14    5fy3              0.045000       0.000031
                                                         0.113512       0.000543
                                                         0.322032       0.086041
                                                         0.930550       0.419256
                                                         2.987378       0.000000
                          1      14    5fy2z             0.045000       0.000070
                                                         0.113512       0.001214
                                                         0.322032       0.192393
                                                         0.930550       0.937485
                                                         2.987378       0.000000
                          1      14    5fyz2             0.045000       0.000070
                                                         0.113512       0.001214
                                                         0.322032       0.192393
                                                         0.930550       0.937485
                                                         2.987378       0.000000
                          1      14    5fz3              0.045000       0.000031
                                                         0.113512       0.000543
                                                         0.322032       0.086041
                                                         0.930550       0.419256
                                                         2.987378       0.000000

                          1      15    5gx4              0.045000       0.000051
                                                         0.113512       0.002105
                                                         0.322032       0.008605
                                                         0.930550       0.058205
                                                         2.987378       0.000000
                          1      15    5gx3y             0.045000       0.000134
                                                         0.113512       0.005569
                                                         0.322032       0.022768
                                                         0.930550       0.153995
                                                         2.987378       0.000000
                          1      15    5gx3z             0.045000       0.000134
                                                         0.113512       0.005569
                                                         0.322032       0.022768
                                                         0.930550       0.153995
                                                         2.987378       0.000000
                          1      15    5gx2y2            0.045000       0.000173
                                                         0.113512       0.007189
                                                         0.322032       0.029393
                                                         0.930550       0.198807
                                                         2.987378       0.000000
                          1      15    5gx2yz            0.045000       0.000300
                                                         0.113512       0.012452
                                                         0.322032       0.050910
                                                         0.930550       0.344344
                                                         2.987378       0.000000
                          1      15    5gx2z2            0.045000       0.000173
                                                         0.113512       0.007189
                                                         0.322032       0.029393
                                                         0.930550       0.198807
                                                         2.987378       0.000000
                          1      15    5gxy3             0.045000       0.000134
                                                         0.113512       0.005569
                                                         0.322032       0.022768
                                                         0.930550       0.153995
                                                         2.987378       0.000000
                          1      15    5gxy2z            0.045000       0.000300
                                                         0.113512       0.012452
                                                         0.322032       0.050910
                                                         0.930550       0.344344
                                                         2.987378       0.000000
                          1      15    5gxyz2            0.045000       0.000300
                                                         0.113512       0.012452
                                                         0.322032       0.050910
                                                         0.930550       0.344344
                                                         2.987378       0.000000
                          1      15    5gxz3             0.045000       0.000134
                                                         0.113512       0.005569
                                                         0.322032       0.022768
                                                         0.930550       0.153995
                                                         2.987378       0.000000
                          1      15    5gy4              0.045000       0.000051
                                                         0.113512       0.002105
                                                         0.322032       0.008605
                                                         0.930550       0.058205
                                                         2.987378       0.000000
                          1      15    5gy3z             0.045000       0.000134
                                                         0.113512       0.005569
                                                         0.322032       0.022768
                                                         0.930550       0.153995
                                                         2.987378       0.000000
                          1      15    5gy2z2            0.045000       0.000173
                                                         0.113512       0.007189
                                                         0.322032       0.029393
                                                         0.930550       0.198807
                                                         2.987378       0.000000
                          1      15    5gyz3             0.045000       0.000134
                                                         0.113512       0.005569
                                                         0.322032       0.022768
                                                         0.930550       0.153995
                                                         2.987378       0.000000
                          1      15    5gz4              0.045000       0.000051
                                                         0.113512       0.002105
                                                         0.322032       0.008605
                                                         0.930550       0.058205
                                                         2.987378       0.000000

                          2       1    1s         

     AE Potential information for                                            ALL

       Description:                                       All-electron potential
                                          Krack, Parrinello, PCCP 2, 2105 (2000)

       Gaussian exponent of the core charge distribution:               5.979100
       Electronic configuration (s p d ...):                           4   3   0

  2. Atomic kind: C                                     Number of atoms:       5

     Orbital Basis Set                                        aug-TZVP-MOLOPT-ae

       Number of orbital shell sets:                                           2
       Number of orbital shells:                                              16
       Number of primitive Cartesian functions:                               13
       Number of Cartesian basis functions:                                   71
       Number of spherical basis functions:                                   56
       Norm type:                                                              2

       Normalised Cartesian orbitals:

                        Set   Shell   Orbital            Exponent    Coefficient

                          1       1    1s                0.040000       0.000000
                                                         0.097098       0.019281
                                                         0.283960       0.027513
                                                         0.806764       0.003692
                                                         2.441624       0.446183
                                                         6.739673       1.752510
                                                        34.417212       0.637474

                          1       2    2s                0.040000       0.000000
                                                         0.097098       0.029117
                                                         0.283960       0.094997
                                                         0.806764       0.362633
                                                         2.441624      -0.104551
                                                         6.739673      -0.288836
                                                        34.417212       1.102934

                          1       3    3s                0.040000       0.000000
                                                         0.097098       0.047046
                                                         0.283960       0.169545
                                                         0.806764      -0.252838
                                                         2.441624      -0.199197
                                                         6.739673      -0.168746
                                                        34.417212      -6.120053

                          1       4    4s                0.040000       0.000000
                                                         0.097098       0.188374
                                                         0.283960      -0.341415
                                                         0.806764       0.091223
                                                         2.441624      -0.053941
                                                         6.739673      -0.401007
                                                        34.417212      -3.786931

                          1       5    5s                0.040000       0.099533
                                                         0.097098      -0.167672
                                                         0.283960      -0.126383
                                                         0.806764       0.030074
                                                         2.441624       0.000000
                                                         6.739673       0.000000
                                                        34.417212       0.000000

                          1       6    2px               0.040000       0.000000
                                                         0.097098       0.005087
                                                         0.283960       0.032186
                                                         0.806764       0.779023
                                                         2.441624       0.695625
                                                         6.739673       2.243109
                                                        34.417212       2.016536
                          1       6    2py               0.040000       0.000000
                                                         0.097098       0.005087
                                                         0.283960       0.032186
                                                         0.806764       0.779023
                                                         2.441624       0.695625
                                                         6.739673       2.243109
                                                        34.417212       2.016536
                          1       6    2pz               0.040000       0.000000
                                                         0.097098       0.005087
                                                         0.283960       0.032186
                                                         0.806764       0.779023
                                                         2.441624       0.695625
                                                         6.739673       2.243109
                                                        34.417212       2.016536

                          1       7    3px               0.040000       0.000000
                                                         0.097098       0.008084
                                                         0.283960       0.294367
                                                         0.806764      -0.188640
                                                         2.441624       0.912249
                                                         6.739673      -2.720242
                                                        34.417212       1.690366
                          1       7    3py               0.040000       0.000000
                                                         0.097098       0.008084
                                                         0.283960       0.294367
                                                         0.806764      -0.188640
                                                         2.441624       0.912249
                                                         6.739673      -2.720242
                                                        34.417212       1.690366
                          1       7    3pz               0.040000       0.000000
                                                         0.097098       0.008084
                                                         0.283960       0.294367
                                                         0.806764      -0.188640
                                                         2.441624       0.912249
                                                         6.739673      -2.720242
                                                        34.417212       1.690366

                          1       8    4px               0.040000       0.000000
                                                         0.097098       0.081068
                                                         0.283960      -0.017243
                                                         0.806764      -0.070055
                                                         2.441624      -0.855991
                                                         6.739673       1.761645
                                                        34.417212     -12.705833
                          1       8    4py               0.040000       0.000000
                                                         0.097098       0.081068
                                                         0.283960      -0.017243
                                                         0.806764      -0.070055
                                                         2.441624      -0.855991
                                                         6.739673       1.761645
                                                        34.417212     -12.705833
                          1       8    4pz               0.040000       0.000000
                                                         0.097098       0.081068
                                                         0.283960      -0.017243
                                                         0.806764      -0.070055
                                                         2.441624      -0.855991
                                                         6.739673       1.761645
                                                        34.417212     -12.705833

                          1       9    5px               0.040000       0.032085
                                                         0.097098      -0.027366
                                                         0.283960      -0.100343
                                                         0.806764      -0.020266
                                                         2.441624       0.000000
                                                         6.739673       0.000000
                                                        34.417212       0.000000
                          1       9    5py               0.040000       0.032085
                                                         0.097098      -0.027366
                                                         0.283960      -0.100343
                                                         0.806764      -0.020266
                                                         2.441624       0.000000
                                                         6.739673       0.000000
                                                        34.417212       0.000000
                          1       9    5pz               0.040000       0.032085
                                                         0.097098      -0.027366
                                                         0.283960      -0.100343
                                                         0.806764      -0.020266
                                                         2.441624       0.000000
                                                         6.739673       0.000000
                                                        34.417212       0.000000

                          1      10    3dx2              0.040000       0.000000
                                                         0.097098       0.001415
                                                         0.283960       0.015501
                                                         0.806764       0.546922
                                                         2.441624       3.763414
                                                         6.739673       4.248634
                                                        34.417212     174.894573
                          1      10    3dxy              0.040000       0.000000
                                                         0.097098       0.002451
                                                         0.283960       0.026849
                                                         0.806764       0.947296
                                                         2.441624       6.518424
                                                         6.739673       7.358850
                                                        34.417212     302.926287
                          1      10    3dxz              0.040000       0.000000
                                                         0.097098       0.002451
                                                         0.283960       0.026849
                                                         0.806764       0.947296
                                                         2.441624       6.518424
                                                         6.739673       7.358850
                                                        34.417212     302.926287
                          1      10    3dy2              0.040000       0.000000
                                                         0.097098       0.001415
                                                         0.283960       0.015501
                                                         0.806764       0.546922
                                                         2.441624       3.763414
                                                         6.739673       4.248634
                                                        34.417212     174.894573
                          1      10    3dyz              0.040000       0.000000
                                                         0.097098       0.002451
                                                         0.283960       0.026849
                                                         0.806764       0.947296
                                                         2.441624       6.518424
                                                         6.739673       7.358850
                                                        34.417212     302.926287
                          1      10    3dz2              0.040000       0.000000
                                                         0.097098       0.001415
                                                         0.283960       0.015501
                                                         0.806764       0.546922
                                                         2.441624       3.763414
                                                         6.739673       4.248634
                                                        34.417212     174.894573

                          1      11    4dx2              0.040000       0.000000
                                                         0.097098       0.001225
                                                         0.283960       0.139703
                                                         0.806764       0.323683
                                                         2.441624      -2.510108
                                                         6.739673      -4.401044
                                                        34.417212    -164.169372
                          1      11    4dxy              0.040000       0.000000
                                                         0.097098       0.002122
                                                         0.283960       0.241972
                                                         0.806764       0.560636
                                                         2.441624      -4.347634
                                                         6.739673      -7.622831
                                                        34.417212    -284.349694
                          1      11    4dxz              0.040000       0.000000
                                                         0.097098       0.002122
                                                         0.283960       0.241972
                                                         0.806764       0.560636
                                                         2.441624      -4.347634
                                                         6.739673      -7.622831
                                                        34.417212    -284.349694
                          1      11    4dy2              0.040000       0.000000
                                                         0.097098       0.001225
                                                         0.283960       0.139703
                                                         0.806764       0.323683
                                                         2.441624      -2.510108
                                                         6.739673      -4.401044
                                                        34.417212    -164.169372
                          1      11    4dyz              0.040000       0.000000
                                                         0.097098       0.002122
                                                         0.283960       0.241972
                                                         0.806764       0.560636
                                                         2.441624      -4.347634
                                                         6.739673      -7.622831
                                                        34.417212    -284.349694
                          1      11    4dz2              0.040000       0.000000
                                                         0.097098       0.001225
                                                         0.283960       0.139703
                                                         0.806764       0.323683
                                                         2.441624      -2.510108
                                                         6.739673      -4.401044
                                                        34.417212    -164.169372

                          1      12    5dx2              0.040000       0.006049
                                                         0.097098      -0.003128
                                                         0.283960       0.033814
                                                         0.806764       0.003338
                                                         2.441624       0.000000
                                                         6.739673       0.000000
                                                        34.417212       0.000000
                          1      12    5dxy              0.040000       0.010477
                                                         0.097098      -0.005418
                                                         0.283960       0.058567
                                                         0.806764       0.005781
                                                         2.441624       0.000000
                                                         6.739673       0.000000
                                                        34.417212       0.000000
                          1      12    5dxz              0.040000       0.010477
                                                         0.097098      -0.005418
                                                         0.283960       0.058567
                                                         0.806764       0.005781
                                                         2.441624       0.000000
                                                         6.739673       0.000000
                                                        34.417212       0.000000
                          1      12    5dy2              0.040000       0.006049
                                                         0.097098      -0.003128
                                                         0.283960       0.033814
                                                         0.806764       0.003338
                                                         2.441624       0.000000
                                                         6.739673       0.000000
                                                        34.417212       0.000000
                          1      12    5dyz              0.040000       0.010477
                                                         0.097098      -0.005418
                                                         0.283960       0.058567
                                                         0.806764       0.005781
                                                         2.441624       0.000000
                                                         6.739673       0.000000
                                                        34.417212       0.000000
                          1      12    5dz2              0.040000       0.006049
                                                         0.097098      -0.003128
                                                         0.283960       0.033814
                                                         0.806764       0.003338
                                                         2.441624       0.000000
                                                         6.739673       0.000000
                                                        34.417212       0.000000

                          1      13    4fx3              0.040000       0.000000
                                                         0.097098      -0.000799
                                                         0.283960       0.042127
                                                         0.806764       0.576468
                                                         2.441624       1.033755
                                                         6.739673      -2.026957
                                                        34.417212      49.427593
                          1      13    4fx2y             0.040000       0.000000
                                                         0.097098      -0.001786
                                                         0.283960       0.094199
                                                         0.806764       1.289022
                                                         2.441624       2.311546
                                                         6.739673      -4.532415
                                                        34.417212     110.523457
                          1      13    4fx2z             0.040000       0.000000
                                                         0.097098      -0.001786
                                                         0.283960       0.094199
                                                         0.806764       1.289022
                                                         2.441624       2.311546
                                                         6.739673      -4.532415
                                                        34.417212     110.523457
                          1      13    4fxy2             0.040000       0.000000
                                                         0.097098      -0.001786
                                                         0.283960       0.094199
                                                         0.806764       1.289022
                                                         2.441624       2.311546
                                                         6.739673      -4.532415
                                                        34.417212     110.523457
                          1      13    4fxyz             0.040000       0.000000
                                                         0.097098      -0.003093
                                                         0.283960       0.163158
                                                         0.806764       2.232651
                                                         2.441624       4.003716
                                                         6.739673      -7.850372
                                                        34.417212     191.432243
                          1      13    4fxz2             0.040000       0.000000
                                                         0.097098      -0.001786
                                                         0.283960       0.094199
                                                         0.806764       1.289022
                                                         2.441624       2.311546
                                                         6.739673      -4.532415
                                                        34.417212     110.523457
                          1      13    4fy3              0.040000       0.000000
                                                         0.097098      -0.000799
                                                         0.283960       0.042127
                                                         0.806764       0.576468
                                                         2.441624       1.033755
                                                         6.739673      -2.026957
                                                        34.417212      49.427593
                          1      13    4fy2z             0.040000       0.000000
                                                         0.097098      -0.001786
                                                         0.283960       0.094199
                                                         0.806764       1.289022
                                                         2.441624       2.311546
                                                         6.739673      -4.532415
                                                        34.417212     110.523457
                          1      13    4fyz2             0.040000       0.000000
                                                         0.097098      -0.001786
                                                         0.283960       0.094199
                                                         0.806764       1.289022
                                                         2.441624       2.311546
                                                         6.739673      -4.532415
                                                        34.417212     110.523457
                          1      13    4fz3              0.040000       0.000000
                                                         0.097098      -0.000799
                                                         0.283960       0.042127
                                                         0.806764       0.576468
                                                         2.441624       1.033755
                                                         6.739673      -2.026957
                                                        34.417212      49.427593

                          1      14    5fx3              0.040000       0.000092
                                                         0.097098       0.001511
                                                         0.283960      -0.094589
                                                         0.806764       0.000869
                                                         2.441624       0.000000
                                                         6.739673       0.000000
                                                        34.417212       0.000000
                          1      14    5fx2y             0.040000       0.000206
                                                         0.097098       0.003380
                                                         0.283960      -0.211507
                                                         0.806764       0.001943
                                                         2.441624       0.000000
                                                         6.739673       0.000000
                                                        34.417212       0.000000
                          1      14    5fx2z             0.040000       0.000206
                                                         0.097098       0.003380
                                                         0.283960      -0.211507
                                                         0.806764       0.001943
                                                         2.441624       0.000000
                                                         6.739673       0.000000
                                                        34.417212       0.000000
                          1      14    5fxy2             0.040000       0.000206
                                                         0.097098       0.003380
                                                         0.283960      -0.211507
                                                         0.806764       0.001943
                                                         2.441624       0.000000
                                                         6.739673       0.000000
                                                        34.417212       0.000000
                          1      14    5fxyz             0.040000       0.000357
                                                         0.097098       0.005854
                                                         0.283960      -0.366341
                                                         0.806764       0.003365
                                                         2.441624       0.000000
                                                         6.739673       0.000000
                                                        34.417212       0.000000
                          1      14    5fxz2             0.040000       0.000206
                                                         0.097098       0.003380
                                                         0.283960      -0.211507
                                                         0.806764       0.001943
                                                         2.441624       0.000000
                                                         6.739673       0.000000
                                                        34.417212       0.000000
                          1      14    5fy3              0.040000       0.000092
                                                         0.097098       0.001511
                                                         0.283960      -0.094589
                                                         0.806764       0.000869
                                                         2.441624       0.000000
                                                         6.739673       0.000000
                                                        34.417212       0.000000
                          1      14    5fy2z             0.040000       0.000206
                                                         0.097098       0.003380
                                                         0.283960      -0.211507
                                                         0.806764       0.001943
                                                         2.441624       0.000000
                                                         6.739673       0.000000
                                                        34.417212       0.000000
                          1      14    5fyz2             0.040000       0.000206
                                                         0.097098       0.003380
                                                         0.283960      -0.211507
                                                         0.806764       0.001943
                                                         2.441624       0.000000
                                                         6.739673       0.000000
                                                        34.417212       0.000000
                          1      14    5fz3              0.040000       0.000092
                                                         0.097098       0.001511
                                                         0.283960      -0.094589
                                                         0.806764       0.000869
                                                         2.441624       0.000000
                                                         6.739673       0.000000
                                                        34.417212       0.000000

                          1      15    5gx4              0.040000       0.000014
                                                         0.097098       0.001608
                                                         0.283960       0.004604
                                                         0.806764      -0.003474
                                                         2.441624       0.000000
                                                         6.739673       0.000000
                                                        34.417212       0.000000
                          1      15    5gx3y             0.040000       0.000036
                                                         0.097098       0.004255
                                                         0.283960       0.012180
                                                         0.806764      -0.009191
                                                         2.441624       0.000000
                                                         6.739673       0.000000
                                                        34.417212       0.000000
                          1      15    5gx3z             0.040000       0.000036
                                                         0.097098       0.004255
                                                         0.283960       0.012180
                                                         0.806764      -0.009191
                                                         2.441624       0.000000
                                                         6.739673       0.000000
                                                        34.417212       0.000000
                          1      15    5gx2y2            0.040000       0.000046
                                                         0.097098       0.005493
                                                         0.283960       0.015725
                                                         0.806764      -0.011865
                                                         2.441624       0.000000
                                                         6.739673       0.000000
                                                        34.417212       0.000000
                          1      15    5gx2yz            0.040000       0.000080
                                                         0.097098       0.009514
                                                         0.283960       0.027236
                                                         0.806764      -0.020551
                                                         2.441624       0.000000
                                                         6.739673       0.000000
                                                        34.417212       0.000000
                          1      15    5gx2z2            0.040000       0.000046
                                                         0.097098       0.005493
                                                         0.283960       0.015725
                                                         0.806764      -0.011865
                                                         2.441624       0.000000
                                                         6.739673       0.000000
                                                        34.417212       0.000000
                          1      15    5gxy3             0.040000       0.000036
                                                         0.097098       0.004255
                                                         0.283960       0.012180
                                                         0.806764      -0.009191
                                                         2.441624       0.000000
                                                         6.739673       0.000000
                                                        34.417212       0.000000
                          1      15    5gxy2z            0.040000       0.000080
                                                         0.097098       0.009514
                                                         0.283960       0.027236
                                                         0.806764      -0.020551
                                                         2.441624       0.000000
                                                         6.739673       0.000000
                                                        34.417212       0.000000
                          1      15    5gxyz2            0.040000       0.000080
                                                         0.097098       0.009514
                                                         0.283960       0.027236
                                                         0.806764      -0.020551
                                                         2.441624       0.000000
                                                         6.739673       0.000000
                                                        34.417212       0.000000
                          1      15    5gxz3             0.040000       0.000036
                                                         0.097098       0.004255
                                                         0.283960       0.012180
                                                         0.806764      -0.009191
                                                         2.441624       0.000000
                                                         6.739673       0.000000
                                                        34.417212       0.000000
                          1      15    5gy4              0.040000       0.000014
                                                         0.097098       0.001608
                                                         0.283960       0.004604
                                                         0.806764      -0.003474
                                                         2.441624       0.000000
                                                         6.739673       0.000000
                                                        34.417212       0.000000
                          1      15    5gy3z             0.040000       0.000036
                                                         0.097098       0.004255
                                                         0.283960       0.012180
                                                         0.806764      -0.009191
                                                         2.441624       0.000000
                                                         6.739673       0.000000
                                                        34.417212       0.000000
                          1      15    5gy2z2            0.040000       0.000046
                                                         0.097098       0.005493
                                                         0.283960       0.015725
                                                         0.806764      -0.011865
                                                         2.441624       0.000000
                                                         6.739673       0.000000
                                                        34.417212       0.000000
                          1      15    5gyz3             0.040000       0.000036
                                                         0.097098       0.004255
                                                         0.283960       0.012180
                                                         0.806764      -0.009191
                                                         2.441624       0.000000
                                                         6.739673       0.000000
                                                        34.417212       0.000000
                          1      15    5gz4              0.040000       0.000014
                                                         0.097098       0.001608
                                                         0.283960       0.004604
                                                         0.806764      -0.003474
                                                         2.441624       0.000000
                                                         6.739673       0.000000
                                                        34.417212       0.000000

                          2       1    1s            13575.369584       0.323227
                                                      2035.237517       2.062509
                                                       463.111112       2.210797
                                                       131.318553       4.954487
                                                        42.899593       1.730189
                                                        15.855102       4.257999

     RI Auxiliary Basis Set             RI_aug-TZVP-MOLOPT-ae_N_RI_048_s_p_d_f_g

       Number of orbital shell sets:                                          14
       Number of orbital shells:                                              14
       Number of primitive Cartesian functions:                               14
       Number of Cartesian basis functions:                                   62
       Number of spherical basis functions:                                   48
       Norm type:                                                              2

       Normalised Cartesian orbitals:

                        Set   Shell   Orbital            Exponent    Coefficient

                          1       1    1s                0.245676       0.248704

                          2       1    2s                0.424410       0.374757

                          3       1    7px               0.522937       0.633872
                          3       1    7py               0.522937       0.633872
                          3       1    7pz               0.522937       0.633872

                          4       1   12fx3              0.552235       0.387019
                          4       1   12fx2y             0.552235       0.865402
                          4       1   12fx2z             0.552235       0.865402
                          4       1   12fxy2             0.552235       0.865402
                          4       1   12fxyz             0.552235       1.498920
                          4       1   12fxz2             0.552235       0.865402
                          4       1   12fy3              0.552235       0.387019
                          4       1   12fy2z             0.552235       0.865402
                          4       1   12fyz2             0.552235       0.865402
                          4       1   12fz3              0.552235       0.387019

                          5       1   10dx2              0.685097       0.849133
                          5       1   10dxy              0.685097       1.470741
                          5       1   10dxz              0.685097       1.470741
                          5       1   10dy2              0.685097       0.849133
                          5       1   10dyz              0.685097       1.470741
                          5       1   10dz2              0.685097       0.849133

                          6       1   14gx4              1.009950       1.143562
                          6       1   14gx3y             1.009950       3.025581
                          6       1   14gx3z             1.009950       3.025581
                          6       1   14gx2y2            1.009950       3.906008
                          6       1   14gx2yz            1.009950       6.765404
                          6       1   14gx2z2            1.009950       3.906008
                          6       1   14gxy3             1.009950       3.025581
                          6       1   14gxy2z            1.009950       6.765404
                          6       1   14gxyz2            1.009950       6.765404
                          6       1   14gxz3             1.009950       3.025581
                          6       1   14gy4              1.009950       1.143562
                          6       1   14gy3z             1.009950       3.025581
                          6       1   14gy2z2            1.009950       3.906008
                          6       1   14gyz3             1.009950       3.025581
                          6       1   14gz4              1.009950       1.143562

                          7       1    3s                1.240999       0.837990

                          8       1    8px               1.729350       2.826791
                          8       1    8py               1.729350       2.826791
                          8       1    8pz               1.729350       2.826791

                          9       1   13fx3              1.829710       5.732109
                          9       1   13fx2y             1.829710      12.817385
                          9       1   13fx2z             1.829710      12.817385
                          9       1   13fxy2             1.829710      12.817385
                          9       1   13fxyz             1.829710      22.200361
                          9       1   13fxz2             1.829710      12.817385
                          9       1   13fy3              1.829710       5.732109
                          9       1   13fy2z             1.829710      12.817385
                          9       1   13fyz2             1.829710      12.817385
                          9       1   13fz3              1.829710       5.732109

                         10       1   11dx2              2.007195       5.571103
                         10       1   11dxy              2.007195       9.649433
                         10       1   11dxz              2.007195       9.649433
                         10       1   11dy2              2.007195       5.571103
                         10       1   11dyz              2.007195       9.649433
                         10       1   11dz2              2.007195       5.571103

                         11       1    4s                5.187361       2.449740

                         12       1    9px              10.111342      25.701062
                         12       1    9py              10.111342      25.701062
                         12       1    9pz              10.111342      25.701062

                         13       1    5s               21.086248       7.013093

                         14       1    6s               80.959415      19.235816

       Atomic covalent radius [Angstrom]:                                  0.770

       Atomic van der Waals radius [Angstrom]:                             1.700

     The atoms of this atomic kind are PAW atoms (GAPW):
       Hard Gaussian function radius:                                      1.512
       Rho0 radius:                                                        1.512
       Maximum GTO radius used for PAW projector construction:            24.566

     GAPW Soft Basis Set                                 aug-TZVP-MOLOPT-ae_soft

       Number of orbital shell sets:                                           2
       Number of orbital shells:                                              16
       Number of primitive Cartesian functions:                                5
       Number of Cartesian basis functions:                                   71
       Number of spherical basis functions:                                   56
       Norm type:                                                              2

       Normalised Cartesian orbitals:

                        Set   Shell   Orbital            Exponent    Coefficient

                          1       1    1s                0.040000       0.000000
                                                         0.097098       0.019281
                                                         0.283960       0.027513
                                                         0.806764       0.003692
                                                         2.441624       0.446183

                          1       2    2s                0.040000       0.000000
                                                         0.097098       0.029117
                                                         0.283960       0.094997
                                                         0.806764       0.362633
                                                         2.441624      -0.104551

                          1       3    3s                0.040000       0.000000
                                                         0.097098       0.047046
                                                         0.283960       0.169545
                                                         0.806764      -0.252838
                                                         2.441624      -0.199197

                          1       4    4s                0.040000       0.000000
                                                         0.097098       0.188374
                                                         0.283960      -0.341415
                                                         0.806764       0.091223
                                                         2.441624      -0.053941

                          1       5    5s                0.040000       0.099533
                                                         0.097098      -0.167672
                                                         0.283960      -0.126383
                                                         0.806764       0.030074
                                                         2.441624       0.000000

                          1       6    2px               0.040000       0.000000
                                                         0.097098       0.005087
                                                         0.283960       0.032186
                                                         0.806764       0.779023
                                                         2.441624       0.695625
                          1       6    2py               0.040000       0.000000
                                                         0.097098       0.005087
                                                         0.283960       0.032186
                                                         0.806764       0.779023
                                                         2.441624       0.695625
                          1       6    2pz               0.040000       0.000000
                                                         0.097098       0.005087
                                                         0.283960       0.032186
                                                         0.806764       0.779023
                                                         2.441624       0.695625

                          1       7    3px               0.040000       0.000000
                                                         0.097098       0.008084
                                                         0.283960       0.294367
                                                         0.806764      -0.188640
                                                         2.441624       0.912249
                          1       7    3py               0.040000       0.000000
                                                         0.097098       0.008084
                                                         0.283960       0.294367
                                                         0.806764      -0.188640
                                                         2.441624       0.912249
                          1       7    3pz               0.040000       0.000000
                                                         0.097098       0.008084
                                                         0.283960       0.294367
                                                         0.806764      -0.188640
                                                         2.441624       0.912249

                          1       8    4px               0.040000       0.000000
                                                         0.097098       0.081068
                                                         0.283960      -0.017243
                                                         0.806764      -0.070055
                                                         2.441624      -0.855991
                          1       8    4py               0.040000       0.000000
                                                         0.097098       0.081068
                                                         0.283960      -0.017243
                                                         0.806764      -0.070055
                                                         2.441624      -0.855991
                          1       8    4pz               0.040000       0.000000
                                                         0.097098       0.081068
                                                         0.283960      -0.017243
                                                         0.806764      -0.070055
                                                         2.441624      -0.855991

                          1       9    5px               0.040000       0.032085
                                                         0.097098      -0.027366
                                                         0.283960      -0.100343
                                                         0.806764      -0.020266
                                                         2.441624       0.000000
                          1       9    5py               0.040000       0.032085
                                                         0.097098      -0.027366
                                                         0.283960      -0.100343
                                                         0.806764      -0.020266
                                                         2.441624       0.000000
                          1       9    5pz               0.040000       0.032085
                                                         0.097098      -0.027366
                                                         0.283960      -0.100343
                                                         0.806764      -0.020266
                                                         2.441624       0.000000

                          1      10    3dx2              0.040000       0.000000
                                                         0.097098       0.001415
                                                         0.283960       0.015501
                                                         0.806764       0.546922
                                                         2.441624       3.763414
                          1      10    3dxy              0.040000       0.000000
                                                         0.097098       0.002451
                                                         0.283960       0.026849
                                                         0.806764       0.947296
                                                         2.441624       6.518424
                          1      10    3dxz              0.040000       0.000000
                                                         0.097098       0.002451
                                                         0.283960       0.026849
                                                         0.806764       0.947296
                                                         2.441624       6.518424
                          1      10    3dy2              0.040000       0.000000
                                                         0.097098       0.001415
                                                         0.283960       0.015501
                                                         0.806764       0.546922
                                                         2.441624       3.763414
                          1      10    3dyz              0.040000       0.000000
                                                         0.097098       0.002451
                                                         0.283960       0.026849
                                                         0.806764       0.947296
                                                         2.441624       6.518424
                          1      10    3dz2              0.040000       0.000000
                                                         0.097098       0.001415
                                                         0.283960       0.015501
                                                         0.806764       0.546922
                                                         2.441624       3.763414

                          1      11    4dx2              0.040000       0.000000
                                                         0.097098       0.001225
                                                         0.283960       0.139703
                                                         0.806764       0.323683
                                                         2.441624      -2.510108
                          1      11    4dxy              0.040000       0.000000
                                                         0.097098       0.002122
                                                         0.283960       0.241972
                                                         0.806764       0.560636
                                                         2.441624      -4.347634
                          1      11    4dxz              0.040000       0.000000
                                                         0.097098       0.002122
                                                         0.283960       0.241972
                                                         0.806764       0.560636
                                                         2.441624      -4.347634
                          1      11    4dy2              0.040000       0.000000
                                                         0.097098       0.001225
                                                         0.283960       0.139703
                                                         0.806764       0.323683
                                                         2.441624      -2.510108
                          1      11    4dyz              0.040000       0.000000
                                                         0.097098       0.002122
                                                         0.283960       0.241972
                                                         0.806764       0.560636
                                                         2.441624      -4.347634
                          1      11    4dz2              0.040000       0.000000
                                                         0.097098       0.001225
                                                         0.283960       0.139703
                                                         0.806764       0.323683
                                                         2.441624      -2.510108

                          1      12    5dx2              0.040000       0.006049
                                                         0.097098      -0.003128
                                                         0.283960       0.033814
                                                         0.806764       0.003338
                                                         2.441624       0.000000
                          1      12    5dxy              0.040000       0.010477
                                                         0.097098      -0.005418
                                                         0.283960       0.058567
                                                         0.806764       0.005781
                                                         2.441624       0.000000
                          1      12    5dxz              0.040000       0.010477
                                                         0.097098      -0.005418
                                                         0.283960       0.058567
                                                         0.806764       0.005781
                                                         2.441624       0.000000
                          1      12    5dy2              0.040000       0.006049
                                                         0.097098      -0.003128
                                                         0.283960       0.033814
                                                         0.806764       0.003338
                                                         2.441624       0.000000
                          1      12    5dyz              0.040000       0.010477
                                                         0.097098      -0.005418
                                                         0.283960       0.058567
                                                         0.806764       0.005781
                                                         2.441624       0.000000
                          1      12    5dz2              0.040000       0.006049
                                                         0.097098      -0.003128
                                                         0.283960       0.033814
                                                         0.806764       0.003338
                                                         2.441624       0.000000

                          1      13    4fx3              0.040000       0.000000
                                                         0.097098      -0.000799
                                                         0.283960       0.042127
                                                         0.806764       0.576468
                                                         2.441624       1.033755
                          1      13    4fx2y             0.040000       0.000000
                                                         0.097098      -0.001786
                                                         0.283960       0.094199
                                                         0.806764       1.289022
                                                         2.441624       2.311546
                          1      13    4fx2z             0.040000       0.000000
                                                         0.097098      -0.001786
                                                         0.283960       0.094199
                                                         0.806764       1.289022
                                                         2.441624       2.311546
                          1      13    4fxy2             0.040000       0.000000
                                                         0.097098      -0.001786
                                                         0.283960       0.094199
                                                         0.806764       1.289022
                                                         2.441624       2.311546
                          1      13    4fxyz             0.040000       0.000000
                                                         0.097098      -0.003093
                                                         0.283960       0.163158
                                                         0.806764       2.232651
                                                         2.441624       4.003716
                          1      13    4fxz2             0.040000       0.000000
                                                         0.097098      -0.001786
                                                         0.283960       0.094199
                                                         0.806764       1.289022
                                                         2.441624       2.311546
                          1      13    4fy3              0.040000       0.000000
                                                         0.097098      -0.000799
                                                         0.283960       0.042127
                                                         0.806764       0.576468
                                                         2.441624       1.033755
                          1      13    4fy2z             0.040000       0.000000
                                                         0.097098      -0.001786
                                                         0.283960       0.094199
                                                         0.806764       1.289022
                                                         2.441624       2.311546
                          1      13    4fyz2             0.040000       0.000000
                                                         0.097098      -0.001786
                                                         0.283960       0.094199
                                                         0.806764       1.289022
                                                         2.441624       2.311546
                          1      13    4fz3              0.040000       0.000000
                                                         0.097098      -0.000799
                                                         0.283960       0.042127
                                                         0.806764       0.576468
                                                         2.441624       1.033755

                          1      14    5fx3              0.040000       0.000092
                                                         0.097098       0.001511
                                                         0.283960      -0.094589
                                                         0.806764       0.000869
                                                         2.441624       0.000000
                          1      14    5fx2y             0.040000       0.000206
                                                         0.097098       0.003380
                                                         0.283960      -0.211507
                                                         0.806764       0.001943
                                                         2.441624       0.000000
                          1      14    5fx2z             0.040000       0.000206
                                                         0.097098       0.003380
                                                         0.283960      -0.211507
                                                         0.806764       0.001943
                                                         2.441624       0.000000
                          1      14    5fxy2             0.040000       0.000206
                                                         0.097098       0.003380
                                                         0.283960      -0.211507
                                                         0.806764       0.001943
                                                         2.441624       0.000000
                          1      14    5fxyz             0.040000       0.000357
                                                         0.097098       0.005854
                                                         0.283960      -0.366341
                                                         0.806764       0.003365
                                                         2.441624       0.000000
                          1      14    5fxz2             0.040000       0.000206
                                                         0.097098       0.003380
                                                         0.283960      -0.211507
                                                         0.806764       0.001943
                                                         2.441624       0.000000
                          1      14    5fy3              0.040000       0.000092
                                                         0.097098       0.001511
                                                         0.283960      -0.094589
                                                         0.806764       0.000869
                                                         2.441624       0.000000
                          1      14    5fy2z             0.040000       0.000206
                                                         0.097098       0.003380
                                                         0.283960      -0.211507
                                                         0.806764       0.001943
                                                         2.441624       0.000000
                          1      14    5fyz2             0.040000       0.000206
                                                         0.097098       0.003380
                                                         0.283960      -0.211507
                                                         0.806764       0.001943
                                                         2.441624       0.000000
                          1      14    5fz3              0.040000       0.000092
                                                         0.097098       0.001511
                                                         0.283960      -0.094589
                                                         0.806764       0.000869
                                                         2.441624       0.000000

                          1      15    5gx4              0.040000       0.000014
                                                         0.097098       0.001608
                                                         0.283960       0.004604
                                                         0.806764      -0.003474
                                                         2.441624       0.000000
                          1      15    5gx3y             0.040000       0.000036
                                                         0.097098       0.004255
                                                         0.283960       0.012180
                                                         0.806764      -0.009191
                                                         2.441624       0.000000
                          1      15    5gx3z             0.040000       0.000036
                                                         0.097098       0.004255
                                                         0.283960       0.012180
                                                         0.806764      -0.009191
                                                         2.441624       0.000000
                          1      15    5gx2y2            0.040000       0.000046
                                                         0.097098       0.005493
                                                         0.283960       0.015725
                                                         0.806764      -0.011865
                                                         2.441624       0.000000
                          1      15    5gx2yz            0.040000       0.000080
                                                         0.097098       0.009514
                                                         0.283960       0.027236
                                                         0.806764      -0.020551
                                                         2.441624       0.000000
                          1      15    5gx2z2            0.040000       0.000046
                                                         0.097098       0.005493
                                                         0.283960       0.015725
                                                         0.806764      -0.011865
                                                         2.441624       0.000000
                          1      15    5gxy3             0.040000       0.000036
                                                         0.097098       0.004255
                                                         0.283960       0.012180
                                                         0.806764      -0.009191
                                                         2.441624       0.000000
                          1      15    5gxy2z            0.040000       0.000080
                                                         0.097098       0.009514
                                                         0.283960       0.027236
                                                         0.806764      -0.020551
                                                         2.441624       0.000000
                          1      15    5gxyz2            0.040000       0.000080
                                                         0.097098       0.009514
                                                         0.283960       0.027236
                                                         0.806764      -0.020551
                                                         2.441624       0.000000
                          1      15    5gxz3             0.040000       0.000036
                                                         0.097098       0.004255
                                                         0.283960       0.012180
                                                         0.806764      -0.009191
                                                         2.441624       0.000000
                          1      15    5gy4              0.040000       0.000014
                                                         0.097098       0.001608
                                                         0.283960       0.004604
                                                         0.806764      -0.003474
                                                         2.441624       0.000000
                          1      15    5gy3z             0.040000       0.000036
                                                         0.097098       0.004255
                                                         0.283960       0.012180
                                                         0.806764      -0.009191
                                                         2.441624       0.000000
                          1      15    5gy2z2            0.040000       0.000046
                                                         0.097098       0.005493
                                                         0.283960       0.015725
                                                         0.806764      -0.011865
                                                         2.441624       0.000000
                          1      15    5gyz3             0.040000       0.000036
                                                         0.097098       0.004255
                                                         0.283960       0.012180
                                                         0.806764      -0.009191
                                                         2.441624       0.000000
                          1      15    5gz4              0.040000       0.000014
                                                         0.097098       0.001608
                                                         0.283960       0.004604
                                                         0.806764      -0.003474
                                                         2.441624       0.000000

                          2       1    1s         

     AE Potential information for                                            ALL

       Description:                                       All-electron potential
                                          Krack, Parrinello, PCCP 2, 2105 (2000)

       Gaussian exponent of the core charge distribution:               4.109048
       Electronic configuration (s p d ...):                           4   2   0

  3. Atomic kind: O                                     Number of atoms:       5

     Orbital Basis Set                                        aug-TZVP-MOLOPT-ae

       Number of orbital shell sets:                                           2
       Number of orbital shells:                                              16
       Number of primitive Cartesian functions:                               13
       Number of Cartesian basis functions:                                   71
       Number of spherical basis functions:                                   56
       Norm type:                                                              2

       Normalised Cartesian orbitals:

                        Set   Shell   Orbital            Exponent    Coefficient

                          1       1    1s                0.050000       0.000000
                                                         0.148931       0.008771
                                                         0.454433       0.026241
                                                         1.335408       0.005818
                                                         4.395399       0.718493
                                                        12.309450       2.903007
                                                        62.914956       1.320675

                          1       2    2s                0.050000       0.000000
                                                         0.148931       0.036066
                                                         0.454433       0.073646
                                                         1.335408       0.667362
                                                         4.395399      -0.111917
                                                        12.309450      -0.053902
                                                        62.914956      -0.747743

                          1       3    3s                0.050000       0.000000
                                                         0.148931       0.072341
                                                         0.454433       0.339134
                                                         1.335408      -0.296204
                                                         4.395399      -0.066370
                                                        12.309450      -0.509964
                                                        62.914956       0.182030

                          1       4    4s                0.050000       0.000000
                                                         0.148931       0.257390
                                                         0.454433      -0.327789
                                                         1.335408      -0.186757
                                                         4.395399      -0.014958
                                                        12.309450      -0.201401
                                                        62.914956       1.590188

                          1       5    5s                0.050000       0.095896
                                                         0.148931      -0.062439
                                                         0.454433       0.011784
                                                         1.335408      -0.100924
                                                         4.395399       0.000000
                                                        12.309450       0.000000
                                                        62.914956       0.000000

                          1       6    2px               0.050000       0.000000
                                                         0.148931       0.002211
                                                         0.454433      -0.015509
                                                         1.335408       1.487193
                                                         4.395399       2.867225
                                                        12.309450       3.872733
                                                        62.914956     -23.794765
                          1       6    2py               0.050000       0.000000
                                                         0.148931       0.002211
                                                         0.454433      -0.015509
                                                         1.335408       1.487193
                                                         4.395399       2.867225
                                                        12.309450       3.872733
                                                        62.914956     -23.794765
                          1       6    2pz               0.050000       0.000000
                                                         0.148931       0.002211
                                                         0.454433      -0.015509
                                                         1.335408       1.487193
                                                         4.395399       2.867225
                                                        12.309450       3.872733
                                                        62.914956     -23.794765

                          1       7    3px               0.050000       0.000000
                                                         0.148931       0.008518
                                                         0.454433       0.481961
                                                         1.335408       0.085170
                                                         4.395399       0.441215
                                                        12.309450      -1.837950
                                                        62.914956      36.698597
                          1       7    3py               0.050000       0.000000
                                                         0.148931       0.008518
                                                         0.454433       0.481961
                                                         1.335408       0.085170
                                                         4.395399       0.441215
                                                        12.309450      -1.837950
                                                        62.914956      36.698597
                          1       7    3pz               0.050000       0.000000
                                                         0.148931       0.008518
                                                         0.454433       0.481961
                                                         1.335408       0.085170
                                                         4.395399       0.441215
                                                        12.309450      -1.837950
                                                        62.914956      36.698597

                          1       8    4px               0.050000       0.000000
                                                         0.148931       0.138320
                                                         0.454433      -0.034294
                                                         1.335408      -0.042535
                                                         4.395399      -0.295522
                                                        12.309450       0.600610
                                                        62.914956     -10.152534
                          1       8    4py               0.050000       0.000000
                                                         0.148931       0.138320
                                                         0.454433      -0.034294
                                                         1.335408      -0.042535
                                                         4.395399      -0.295522
                                                        12.309450       0.600610
                                                        62.914956     -10.152534
                          1       8    4pz               0.050000       0.000000
                                                         0.148931       0.138320
                                                         0.454433      -0.034294
                                                         1.335408      -0.042535
                                                         4.395399      -0.295522
                                                        12.309450       0.600610
                                                        62.914956     -10.152534

                          1       9    5px               0.050000      -0.000964
                                                         0.148931       0.027417
                                                         0.454433       0.328542
                                                         1.335408       0.651611
                                                         4.395399       0.000000
                                                        12.309450       0.000000
                                                        62.914956       0.000000
                          1       9    5py               0.050000      -0.000964
                                                         0.148931       0.027417
                                                         0.454433       0.328542
                                                         1.335408       0.651611
                                                         4.395399       0.000000
                                                        12.309450       0.000000
                                                        62.914956       0.000000
                          1       9    5pz               0.050000      -0.000964
                                                         0.148931       0.027417
                                                         0.454433       0.328542
                                                         1.335408       0.651611
                                                         4.395399       0.000000
                                                        12.309450       0.000000
                                                        62.914956       0.000000

                          1      10    3dx2              0.050000       0.000000
                                                         0.148931       0.011799
                                                         0.454433       0.037044
                                                         1.335408       1.177796
                                                         4.395399      13.187048
                                                        12.309450      -3.718320
                                                        62.914956     245.407483
                          1      10    3dxy              0.050000       0.000000
                                                         0.148931       0.020436
                                                         0.454433       0.064161
                                                         1.335408       2.040003
                                                         4.395399      22.840637
                                                        12.309450      -6.440319
                                                        62.914956     425.058229
                          1      10    3dxz              0.050000       0.000000
                                                         0.148931       0.020436
                                                         0.454433       0.064161
                                                         1.335408       2.040003
                                                         4.395399      22.840637
                                                        12.309450      -6.440319
                                                        62.914956     425.058229
                          1      10    3dy2              0.050000       0.000000
                                                         0.148931       0.011799
                                                         0.454433       0.037044
                                                         1.335408       1.177796
                                                         4.395399      13.187048
                                                        12.309450      -3.718320
                                                        62.914956     245.407483
                          1      10    3dyz              0.050000       0.000000
                                                         0.148931       0.020436
                                                         0.454433       0.064161
                                                         1.335408       2.040003
                                                         4.395399      22.840637
                                                        12.309450      -6.440319
                                                        62.914956     425.058229
                          1      10    3dz2              0.050000       0.000000
                                                         0.148931       0.011799
                                                         0.454433       0.037044
                                                         1.335408       1.177796
                                                         4.395399      13.187048
                                                        12.309450      -3.718320
                                                        62.914956     245.407483

                          1      11    4dx2              0.050000       0.000000
                                                         0.148931      -0.006399
                                                         0.454433       0.341143
                                                         1.335408       1.062793
                                                         4.395399      -7.656182
                                                        12.309450       6.262545
                                                        62.914956    -198.939864
                          1      11    4dxy              0.050000       0.000000
                                                         0.148931      -0.011084
                                                         0.454433       0.590877
                                                         1.335408       1.840811
                                                         4.395399     -13.260897
                                                        12.309450      10.847045
                                                        62.914956    -344.573952
                          1      11    4dxz              0.050000       0.000000
                                                         0.148931      -0.011084
                                                         0.454433       0.590877
                                                         1.335408       1.840811
                                                         4.395399     -13.260897
                                                        12.309450      10.847045
                                                        62.914956    -344.573952
                          1      11    4dy2              0.050000       0.000000
                                                         0.148931      -0.006399
                                                         0.454433       0.341143
                                                         1.335408       1.062793
                                                         4.395399      -7.656182
                                                        12.309450       6.262545
                                                        62.914956    -198.939864
                          1      11    4dyz              0.050000       0.000000
                                                         0.148931      -0.011084
                                                         0.454433       0.590877
                                                         1.335408       1.840811
                                                         4.395399     -13.260897
                                                        12.309450      10.847045
                                                        62.914956    -344.573952
                          1      11    4dz2              0.050000       0.000000
                                                         0.148931      -0.006399
                                                         0.454433       0.341143
                                                         1.335408       1.062793
                                                         4.395399      -7.656182
                                                        12.309450       6.262545
                                                        62.914956    -198.939864

                          1      12    5dx2              0.050000      -0.000167
                                                         0.148931       0.000910
                                                         0.454433       0.391605
                                                         1.335408       0.205296
                                                         4.395399       0.000000
                                                        12.309450       0.000000
                                                        62.914956       0.000000
                          1      12    5dxy              0.050000      -0.000290
                                                         0.148931       0.001577
                                                         0.454433       0.678279
                                                         1.335408       0.355584
                                                         4.395399       0.000000
                                                        12.309450       0.000000
                                                        62.914956       0.000000
                          1      12    5dxz              0.050000      -0.000290
                                                         0.148931       0.001577
                                                         0.454433       0.678279
                                                         1.335408       0.355584
                                                         4.395399       0.000000
                                                        12.309450       0.000000
                                                        62.914956       0.000000
                          1      12    5dy2              0.050000      -0.000167
                                                         0.148931       0.000910
                                                         0.454433       0.391605
                                                         1.335408       0.205296
                                                         4.395399       0.000000
                                                        12.309450       0.000000
                                                        62.914956       0.000000
                          1      12    5dyz              0.050000      -0.000290
                                                         0.148931       0.001577
                                                         0.454433       0.678279
                                                         1.335408       0.355584
                                                         4.395399       0.000000
                                                        12.309450       0.000000
                                                        62.914956       0.000000
                          1      12    5dz2              0.050000      -0.000167
                                                         0.148931       0.000910
                                                         0.454433       0.391605
                                                         1.335408       0.205296
                                                         4.395399       0.000000
                                                        12.309450       0.000000
                                                        62.914956       0.000000

                          1      13    4fx3              0.050000       0.000000
                                                         0.148931       0.001654
                                                         0.454433       0.066745
                                                         1.335408       2.406605
                                                         4.395399      -5.031344
                                                        12.309450      16.622131
                                                        62.914956       4.775823
                          1      13    4fx2y             0.050000       0.000000
                                                         0.148931       0.003699
                                                         0.454433       0.149247
                                                         1.335408       5.381333
                                                         4.395399     -11.250428
                                                        12.309450      37.168214
                                                        62.914956      10.679064
                          1      13    4fx2z             0.050000       0.000000
                                                         0.148931       0.003699
                                                         0.454433       0.149247
                                                         1.335408       5.381333
                                                         4.395399     -11.250428
                                                        12.309450      37.168214
                                                        62.914956      10.679064
                          1      13    4fxy2             0.050000       0.000000
                                                         0.148931       0.003699
                                                         0.454433       0.149247
                                                         1.335408       5.381333
                                                         4.395399     -11.250428
                                                        12.309450      37.168214
                                                        62.914956      10.679064
                          1      13    4fxyz             0.050000       0.000000
                                                         0.148931       0.006406
                                                         0.454433       0.258503
                                                         1.335408       9.320743
                                                         4.395399     -19.486313
                                                        12.309450      64.377235
                                                        62.914956      18.496681
                          1      13    4fxz2             0.050000       0.000000
                                                         0.148931       0.003699
                                                         0.454433       0.149247
                                                         1.335408       5.381333
                                                         4.395399     -11.250428
                                                        12.309450      37.168214
                                                        62.914956      10.679064
                          1      13    4fy3              0.050000       0.000000
                                                         0.148931       0.001654
                                                         0.454433       0.066745
                                                         1.335408       2.406605
                                                         4.395399      -5.031344
                                                        12.309450      16.622131
                                                        62.914956       4.775823
                          1      13    4fy2z             0.050000       0.000000
                                                         0.148931       0.003699
                                                         0.454433       0.149247
                                                         1.335408       5.381333
                                                         4.395399     -11.250428
                                                        12.309450      37.168214
                                                        62.914956      10.679064
                          1      13    4fyz2             0.050000       0.000000
                                                         0.148931       0.003699
                                                         0.454433       0.149247
                                                         1.335408       5.381333
                                                         4.395399     -11.250428
                                                        12.309450      37.168214
                                                        62.914956      10.679064
                          1      13    4fz3              0.050000       0.000000
                                                         0.148931       0.001654
                                                         0.454433       0.066745
                                                         1.335408       2.406605
                                                         4.395399      -5.031344
                                                        12.309450      16.622131
                                                        62.914956       4.775823

                          1      14    5fx3              0.050000      -0.000035
                                                         0.148931       0.000216
                                                         0.454433       0.256015
                                                         1.335408      -0.160820
                                                         4.395399       0.000000
                                                        12.309450       0.000000
                                                        62.914956       0.000000
                          1      14    5fx2y             0.050000      -0.000077
                                                         0.148931       0.000483
                                                         0.454433       0.572467
                                                         1.335408      -0.359605
                                                         4.395399       0.000000
                                                        12.309450       0.000000
                                                        62.914956       0.000000
                          1      14    5fx2z             0.050000      -0.000077
                                                         0.148931       0.000483
                                                         0.454433       0.572467
                                                         1.335408      -0.359605
                                                         4.395399       0.000000
                                                        12.309450       0.000000
                                                        62.914956       0.000000
                          1      14    5fxy2             0.050000      -0.000077
                                                         0.148931       0.000483
                                                         0.454433       0.572467
                                                         1.335408      -0.359605
                                                         4.395399       0.000000
                                                        12.309450       0.000000
                                                        62.914956       0.000000
                          1      14    5fxyz             0.050000      -0.000134
                                                         0.148931       0.000837
                                                         0.454433       0.991542
                                                         1.335408      -0.622854
                                                         4.395399       0.000000
                                                        12.309450       0.000000
                                                        62.914956       0.000000
                          1      14    5fxz2             0.050000      -0.000077
                                                         0.148931       0.000483
                                                         0.454433       0.572467
                                                         1.335408      -0.359605
                                                         4.395399       0.000000
                                                        12.309450       0.000000
                                                        62.914956       0.000000
                          1      14    5fy3              0.050000      -0.000035
                                                         0.148931       0.000216
                                                         0.454433       0.256015
                                                         1.335408      -0.160820
                                                         4.395399       0.000000
                                                        12.309450       0.000000
                                                        62.914956       0.000000
                          1      14    5fy2z             0.050000      -0.000077
                                                         0.148931       0.000483
                                                         0.454433       0.572467
                                                         1.335408      -0.359605
                                                         4.395399       0.000000
                                                        12.309450       0.000000
                                                        62.914956       0.000000
                          1      14    5fyz2             0.050000      -0.000077
                                                         0.148931       0.000483
                                                         0.454433       0.572467
                                                         1.335408      -0.359605
                                                         4.395399       0.000000
                                                        12.309450       0.000000
                                                        62.914956       0.000000
                          1      14    5fz3              0.050000      -0.000035
                                                         0.148931       0.000216
                                                         0.454433       0.256015
                                                         1.335408      -0.160820
                                                         4.395399       0.000000
                                                        12.309450       0.000000
                                                        62.914956       0.000000

                          1      15    5gx4              0.050000       0.000008
                                                         0.148931       0.000769
                                                         0.454433       0.118509
                                                         1.335408       0.001274
                                                         4.395399       0.000000
                                                        12.309450       0.000000
                                                        62.914956       0.000000
                          1      15    5gx3y             0.050000       0.000022
                                                         0.148931       0.002034
                                                         0.454433       0.313545
                                                         1.335408       0.003370
                                                         4.395399       0.000000
                                                        12.309450       0.000000
                                                        62.914956       0.000000
                          1      15    5gx3z             0.050000       0.000022
                                                         0.148931       0.002034
                                                         0.454433       0.313545
                                                         1.335408       0.003370
                                                         4.395399       0.000000
                                                        12.309450       0.000000
                                                        62.914956       0.000000
                          1      15    5gx2y2            0.050000       0.000029
                                                         0.148931       0.002626
                                                         0.454433       0.404785
                                                         1.335408       0.004351
                                                         4.395399       0.000000
                                                        12.309450       0.000000
                                                        62.914956       0.000000
                          1      15    5gx2yz            0.050000       0.000050
                                                         0.148931       0.004548
                                                         0.454433       0.701109
                                                         1.335408       0.007536
                                                         4.395399       0.000000
                                                        12.309450       0.000000
                                                        62.914956       0.000000
                          1      15    5gx2z2            0.050000       0.000029
                                                         0.148931       0.002626
                                                         0.454433       0.404785
                                                         1.335408       0.004351
                                                         4.395399       0.000000
                                                        12.309450       0.000000
                                                        62.914956       0.000000
                          1      15    5gxy3             0.050000       0.000022
                                                         0.148931       0.002034
                                                         0.454433       0.313545
                                                         1.335408       0.003370
                                                         4.395399       0.000000
                                                        12.309450       0.000000
                                                        62.914956       0.000000
                          1      15    5gxy2z            0.050000       0.000050
                                                         0.148931       0.004548
                                                         0.454433       0.701109
                                                         1.335408       0.007536
                                                         4.395399       0.000000
                                                        12.309450       0.000000
                                                        62.914956       0.000000
                          1      15    5gxyz2            0.050000       0.000050
                                                         0.148931       0.004548
                                                         0.454433       0.701109
                                                         1.335408       0.007536
                                                         4.395399       0.000000
                                                        12.309450       0.000000
                                                        62.914956       0.000000
                          1      15    5gxz3             0.050000       0.000022
                                                         0.148931       0.002034
                                                         0.454433       0.313545
                                                         1.335408       0.003370
                                                         4.395399       0.000000
                                                        12.309450       0.000000
                                                        62.914956       0.000000
                          1      15    5gy4              0.050000       0.000008
                                                         0.148931       0.000769
                                                         0.454433       0.118509
                                                         1.335408       0.001274
                                                         4.395399       0.000000
                                                        12.309450       0.000000
                                                        62.914956       0.000000
                          1      15    5gy3z             0.050000       0.000022
                                                         0.148931       0.002034
                                                         0.454433       0.313545
                                                         1.335408       0.003370
                                                         4.395399       0.000000
                                                        12.309450       0.000000
                                                        62.914956       0.000000
                          1      15    5gy2z2            0.050000       0.000029
                                                         0.148931       0.002626
                                                         0.454433       0.404785
                                                         1.335408       0.004351
                                                         4.395399       0.000000
                                                        12.309450       0.000000
                                                        62.914956       0.000000
                          1      15    5gyz3             0.050000       0.000022
                                                         0.148931       0.002034
                                                         0.454433       0.313545
                                                         1.335408       0.003370
                                                         4.395399       0.000000
                                                        12.309450       0.000000
                                                        62.914956       0.000000
                          1      15    5gz4              0.050000       0.000008
                                                         0.148931       0.000769
                                                         0.454433       0.118509
                                                         1.335408       0.001274
                                                         4.395399       0.000000
                                                        12.309450       0.000000
                                                        62.914956       0.000000

                          2       1    1s            27032.341107       0.827485
                                                      4052.439160       2.350354
                                                       922.349653       2.989583
                                                       261.277359       5.859993
                                                        85.309424       4.920023
                                                        31.080802       6.525964

     RI Auxiliary Basis Set             RI_aug-TZVP-MOLOPT-ae_N_RI_066_s_p_d_f_g

       Number of orbital shell sets:                                          18
       Number of orbital shells:                                              18
       Number of primitive Cartesian functions:                               18
       Number of Cartesian basis functions:                                   87
       Number of spherical basis functions:                                   66
       Norm type:                                                              2

       Normalised Cartesian orbitals:

                        Set   Shell   Orbital            Exponent    Coefficient

                          1       1    1s                0.366457       0.335681

                          2       1    8px               0.661025       0.849596
                          2       1    8py               0.661025       0.849596
                          2       1    8pz               0.661025       0.849596

                          3       1   12dx2              0.720546       0.927508
                          3       1   12dxy              0.720546       1.606491
                          3       1   12dxz              0.720546       1.606491
                          3       1   12dy2              0.720546       0.927508
                          3       1   12dyz              0.720546       1.606491
                          3       1   12dz2              0.720546       0.927508

                          4       1    2s                0.750454       0.574650

                          5       1   17gx4              0.934586       0.923928
                          5       1   17gx3y             0.934586       2.444483
                          5       1   17gx3z             0.934586       2.444483
                          5       1   17gx2y2            0.934586       3.155814
                          5       1   17gx2yz            0.934586       5.466030
                          5       1   17gx2z2            0.934586       3.155814
                          5       1   17gxy3             0.934586       2.444483
                          5       1   17gxy2z            0.934586       5.466030
                          5       1   17gxyz2            0.934586       5.466030
                          5       1   17gxz3             0.934586       2.444483
                          5       1   17gy4              0.934586       0.923928
                          5       1   17gy3z             0.934586       2.444483
                          5       1   17gy2z2            0.934586       3.155814
                          5       1   17gyz3             0.934586       2.444483
                          5       1   17gz4              0.934586       0.923928

                          6       1   15fx3              0.997054       1.462419
                          6       1   15fx2y             0.997054       3.270069
                          6       1   15fx2z             0.997054       3.270069
                          6       1   15fxy2             0.997054       3.270069
                          6       1   15fxyz             0.997054       5.663925
                          6       1   15fxz2             0.997054       3.270069
                          6       1   15fy3              0.997054       1.462419
                          6       1   15fy2z             0.997054       3.270069
                          6       1   15fyz2             0.997054       3.270069
                          6       1   15fz3              0.997054       1.462419

                          7       1    9px               1.382546       2.136927
                          7       1    9py               1.382546       2.136927
                          7       1    9pz               1.382546       2.136927

                          8       1   13dx2              1.695666       4.147199
                          8       1   13dxy              1.695666       7.183159
                          8       1   13dxz              1.695666       7.183159
                          8       1   13dy2              1.695666       4.147199
                          8       1   13dyz              1.695666       7.183159
                          8       1   13dz2              1.695666       4.147199

                          9       1    3s                2.070065       1.229980

                         10       1   18gx4              2.510268      13.985110
                         10       1   18gx3y             2.510268      37.001123
                         10       1   18gx3z             2.510268      37.001123
                         10       1   18gx2y2            2.510268      47.768244
                         10       1   18gx2yz            2.510268      82.737026
                         10       1   18gx2z2            2.510268      47.768244
                         10       1   18gxy3             2.510268      37.001123
                         10       1   18gxy2z            2.510268      82.737026
                         10       1   18gxyz2            2.510268      82.737026
                         10       1   18gxz3             2.510268      37.001123
                         10       1   18gy4              2.510268      13.985110
                         10       1   18gy3z             2.510268      37.001123
                         10       1   18gy2z2            2.510268      47.768244
                         10       1   18gyz3             2.510268      37.001123
                         10       1   18gz4              2.510268      13.985110

                         11       1   16fx3              2.639540      13.073535
                         11       1   16fx2y             2.639540      29.233313
                         11       1   16fx2z             2.639540      29.233313
                         11       1   16fxy2             2.639540      29.233313
                         11       1   16fxyz             2.639540      50.633584
                         11       1   16fxz2             2.639540      29.233313
                         11       1   16fy3              2.639540      13.073535
                         11       1   16fy2z             2.639540      29.233313
                         11       1   16fyz2             2.639540      29.233313
                         11       1   16fz3              2.639540      13.073535

                         12       1   10px               4.720389       9.917731
                         12       1   10py               4.720389       9.917731
                         12       1   10pz               4.720389       9.917731

                         13       1    4s                6.162213       2.787485

                         14       1   14dx2              6.632842      45.121533
                         14       1   14dxy              6.632842      78.152787
                         14       1   14dxz              6.632842      78.152787
                         14       1   14dy2              6.632842      45.121533
                         14       1   14dyz              6.632842      78.152787
                         14       1   14dz2              6.632842      45.121533

                         15       1   11px              14.187453      39.248280
                         15       1   11py              14.187453      39.248280
                         15       1   11pz              14.187453      39.248280

                         16       1    5s               18.488932       6.354684

                         17       1    6s               54.964105      14.386974

                         18       1    7s              162.452635      32.430613

       Atomic covalent radius [Angstrom]:                                  0.730

       Atomic van der Waals radius [Angstrom]:                             1.520

     The atoms of this atomic kind are PAW atoms (GAPW):
       Hard Gaussian function radius:                                      1.512
       Rho0 radius:                                                        1.512
       Maximum GTO radius used for PAW projector construction:            24.566

     GAPW Soft Basis Set                                 aug-TZVP-MOLOPT-ae_soft

       Number of orbital shell sets:                                           2
       Number of orbital shells:                                              16
       Number of primitive Cartesian functions:                                5
       Number of Cartesian basis functions:                                   71
       Number of spherical basis functions:                                   56
       Norm type:                                                              2

       Normalised Cartesian orbitals:

                        Set   Shell   Orbital            Exponent    Coefficient

                          1       1    1s                0.050000       0.000000
                                                         0.148931       0.008771
                                                         0.454433       0.026241
                                                         1.335408       0.005818
                                                         4.395399       0.000000

                          1       2    2s                0.050000       0.000000
                                                         0.148931       0.036066
                                                         0.454433       0.073646
                                                         1.335408       0.667362
                                                         4.395399       0.000000

                          1       3    3s                0.050000       0.000000
                                                         0.148931       0.072341
                                                         0.454433       0.339134
                                                         1.335408      -0.296204
                                                         4.395399       0.000000

                          1       4    4s                0.050000       0.000000
                                                         0.148931       0.257390
                                                         0.454433      -0.327789
                                                         1.335408      -0.186757
                                                         4.395399       0.000000

                          1       5    5s                0.050000       0.095896
                                                         0.148931      -0.062439
                                                         0.454433       0.011784
                                                         1.335408      -0.100924
                                                         4.395399       0.000000

                          1       6    2px               0.050000       0.000000
                                                         0.148931       0.002211
                                                         0.454433      -0.015509
                                                         1.335408       1.487193
                                                         4.395399       0.000000
                          1       6    2py               0.050000       0.000000
                                                         0.148931       0.002211
                                                         0.454433      -0.015509
                                                         1.335408       1.487193
                                                         4.395399       0.000000
                          1       6    2pz               0.050000       0.000000
                                                         0.148931       0.002211
                                                         0.454433      -0.015509
                                                         1.335408       1.487193
                                                         4.395399       0.000000

                          1       7    3px               0.050000       0.000000
                                                         0.148931       0.008518
                                                         0.454433       0.481961
                                                         1.335408       0.085170
                                                         4.395399       0.000000
                          1       7    3py               0.050000       0.000000
                                                         0.148931       0.008518
                                                         0.454433       0.481961
                                                         1.335408       0.085170
                                                         4.395399       0.000000
                          1       7    3pz               0.050000       0.000000
                                                         0.148931       0.008518
                                                         0.454433       0.481961
                                                         1.335408       0.085170
                                                         4.395399       0.000000

                          1       8    4px               0.050000       0.000000
                                                         0.148931       0.138320
                                                         0.454433      -0.034294
                                                         1.335408      -0.042535
                                                         4.395399       0.000000
                          1       8    4py               0.050000       0.000000
                                                         0.148931       0.138320
                                                         0.454433      -0.034294
                                                         1.335408      -0.042535
                                                         4.395399       0.000000
                          1       8    4pz               0.050000       0.000000
                                                         0.148931       0.138320
                                                         0.454433      -0.034294
                                                         1.335408      -0.042535
                                                         4.395399       0.000000

                          1       9    5px               0.050000      -0.000964
                                                         0.148931       0.027417
                                                         0.454433       0.328542
                                                         1.335408       0.651611
                                                         4.395399       0.000000
                          1       9    5py               0.050000      -0.000964
                                                         0.148931       0.027417
                                                         0.454433       0.328542
                                                         1.335408       0.651611
                                                         4.395399       0.000000
                          1       9    5pz               0.050000      -0.000964
                                                         0.148931       0.027417
                                                         0.454433       0.328542
                                                         1.335408       0.651611
                                                         4.395399       0.000000

                          1      10    3dx2              0.050000       0.000000
                                                         0.148931       0.011799
                                                         0.454433       0.037044
                                                         1.335408       1.177796
                                                         4.395399       0.000000
                          1      10    3dxy              0.050000       0.000000
                                                         0.148931       0.020436
                                                         0.454433       0.064161
                                                         1.335408       2.040003
                                                         4.395399       0.000000
                          1      10    3dxz              0.050000       0.000000
                                                         0.148931       0.020436
                                                         0.454433       0.064161
                                                         1.335408       2.040003
                                                         4.395399       0.000000
                          1      10    3dy2              0.050000       0.000000
                                                         0.148931       0.011799
                                                         0.454433       0.037044
                                                         1.335408       1.177796
                                                         4.395399       0.000000
                          1      10    3dyz              0.050000       0.000000
                                                         0.148931       0.020436
                                                         0.454433       0.064161
                                                         1.335408       2.040003
                                                         4.395399       0.000000
                          1      10    3dz2              0.050000       0.000000
                                                         0.148931       0.011799
                                                         0.454433       0.037044
                                                         1.335408       1.177796
                                                         4.395399       0.000000

                          1      11    4dx2              0.050000       0.000000
                                                         0.148931      -0.006399
                                                         0.454433       0.341143
                                                         1.335408       1.062793
                                                         4.395399       0.000000
                          1      11    4dxy              0.050000       0.000000
                                                         0.148931      -0.011084
                                                         0.454433       0.590877
                                                         1.335408       1.840811
                                                         4.395399       0.000000
                          1      11    4dxz              0.050000       0.000000
                                                         0.148931      -0.011084
                                                         0.454433       0.590877
                                                         1.335408       1.840811
                                                         4.395399       0.000000
                          1      11    4dy2              0.050000       0.000000
                                                         0.148931      -0.006399
                                                         0.454433       0.341143
                                                         1.335408       1.062793
                                                         4.395399       0.000000
                          1      11    4dyz              0.050000       0.000000
                                                         0.148931      -0.011084
                                                         0.454433       0.590877
                                                         1.335408       1.840811
                                                         4.395399       0.000000
                          1      11    4dz2              0.050000       0.000000
                                                         0.148931      -0.006399
                                                         0.454433       0.341143
                                                         1.335408       1.062793
                                                         4.395399       0.000000

                          1      12    5dx2              0.050000      -0.000167
                                                         0.148931       0.000910
                                                         0.454433       0.391605
                                                         1.335408       0.205296
                                                         4.395399       0.000000
                          1      12    5dxy              0.050000      -0.000290
                                                         0.148931       0.001577
                                                         0.454433       0.678279
                                                         1.335408       0.355584
                                                         4.395399       0.000000
                          1      12    5dxz              0.050000      -0.000290
                                                         0.148931       0.001577
                                                         0.454433       0.678279
                                                         1.335408       0.355584
                                                         4.395399       0.000000
                          1      12    5dy2              0.050000      -0.000167
                                                         0.148931       0.000910
                                                         0.454433       0.391605
                                                         1.335408       0.205296
                                                         4.395399       0.000000
                          1      12    5dyz              0.050000      -0.000290
                                                         0.148931       0.001577
                                                         0.454433       0.678279
                                                         1.335408       0.355584
                                                         4.395399       0.000000
                          1      12    5dz2              0.050000      -0.000167
                                                         0.148931       0.000910
                                                         0.454433       0.391605
                                                         1.335408       0.205296
                                                         4.395399       0.000000

                          1      13    4fx3              0.050000       0.000000
                                                         0.148931       0.001654
                                                         0.454433       0.066745
                                                         1.335408       2.406605
                                                         4.395399      -5.031344
                          1      13    4fx2y             0.050000       0.000000
                                                         0.148931       0.003699
                                                         0.454433       0.149247
                                                         1.335408       5.381333
                                                         4.395399     -11.250428
                          1      13    4fx2z             0.050000       0.000000
                                                         0.148931       0.003699
                                                         0.454433       0.149247
                                                         1.335408       5.381333
                                                         4.395399     -11.250428
                          1      13    4fxy2             0.050000       0.000000
                                                         0.148931       0.003699
                                                         0.454433       0.149247
                                                         1.335408       5.381333
                                                         4.395399     -11.250428
                          1      13    4fxyz             0.050000       0.000000
                                                         0.148931       0.006406
                                                         0.454433       0.258503
                                                         1.335408       9.320743
                                                         4.395399     -19.486313
                          1      13    4fxz2             0.050000       0.000000
                                                         0.148931       0.003699
                                                         0.454433       0.149247
                                                         1.335408       5.381333
                                                         4.395399     -11.250428
                          1      13    4fy3              0.050000       0.000000
                                                         0.148931       0.001654
                                                         0.454433       0.066745
                                                         1.335408       2.406605
                                                         4.395399      -5.031344
                          1      13    4fy2z             0.050000       0.000000
                                                         0.148931       0.003699
                                                         0.454433       0.149247
                                                         1.335408       5.381333
                                                         4.395399     -11.250428
                          1      13    4fyz2             0.050000       0.000000
                                                         0.148931       0.003699
                                                         0.454433       0.149247
                                                         1.335408       5.381333
                                                         4.395399     -11.250428
                          1      13    4fz3              0.050000       0.000000
                                                         0.148931       0.001654
                                                         0.454433       0.066745
                                                         1.335408       2.406605
                                                         4.395399      -5.031344

                          1      14    5fx3              0.050000      -0.000035
                                                         0.148931       0.000216
                                                         0.454433       0.256015
                                                         1.335408      -0.160820
                                                         4.395399       0.000000
                          1      14    5fx2y             0.050000      -0.000077
                                                         0.148931       0.000483
                                                         0.454433       0.572467
                                                         1.335408      -0.359605
                                                         4.395399       0.000000
                          1      14    5fx2z             0.050000      -0.000077
                                                         0.148931       0.000483
                                                         0.454433       0.572467
                                                         1.335408      -0.359605
                                                         4.395399       0.000000
                          1      14    5fxy2             0.050000      -0.000077
                                                         0.148931       0.000483
                                                         0.454433       0.572467
                                                         1.335408      -0.359605
                                                         4.395399       0.000000
                          1      14    5fxyz             0.050000      -0.000134
                                                         0.148931       0.000837
                                                         0.454433       0.991542
                                                         1.335408      -0.622854
                                                         4.395399       0.000000
                          1      14    5fxz2             0.050000      -0.000077
                                                         0.148931       0.000483
                                                         0.454433       0.572467
                                                         1.335408      -0.359605
                                                         4.395399       0.000000
                          1      14    5fy3              0.050000      -0.000035
                                                         0.148931       0.000216
                                                         0.454433       0.256015
                                                         1.335408      -0.160820
                                                         4.395399       0.000000
                          1      14    5fy2z             0.050000      -0.000077
                                                         0.148931       0.000483
                                                         0.454433       0.572467
                                                         1.335408      -0.359605
                                                         4.395399       0.000000
                          1      14    5fyz2             0.050000      -0.000077
                                                         0.148931       0.000483
                                                         0.454433       0.572467
                                                         1.335408      -0.359605
                                                         4.395399       0.000000
                          1      14    5fz3              0.050000      -0.000035
                                                         0.148931       0.000216
                                                         0.454433       0.256015
                                                         1.335408      -0.160820
                                                         4.395399       0.000000

                          1      15    5gx4              0.050000       0.000008
                                                         0.148931       0.000769
                                                         0.454433       0.118509
                                                         1.335408       0.001274
                                                         4.395399       0.000000
                          1      15    5gx3y             0.050000       0.000022
                                                         0.148931       0.002034
                                                         0.454433       0.313545
                                                         1.335408       0.003370
                                                         4.395399       0.000000
                          1      15    5gx3z             0.050000       0.000022
                                                         0.148931       0.002034
                                                         0.454433       0.313545
                                                         1.335408       0.003370
                                                         4.395399       0.000000
                          1      15    5gx2y2            0.050000       0.000029
                                                         0.148931       0.002626
                                                         0.454433       0.404785
                                                         1.335408       0.004351
                                                         4.395399       0.000000
                          1      15    5gx2yz            0.050000       0.000050
                                                         0.148931       0.004548
                                                         0.454433       0.701109
                                                         1.335408       0.007536
                                                         4.395399       0.000000
                          1      15    5gx2z2            0.050000       0.000029
                                                         0.148931       0.002626
                                                         0.454433       0.404785
                                                         1.335408       0.004351
                                                         4.395399       0.000000
                          1      15    5gxy3             0.050000       0.000022
                                                         0.148931       0.002034
                                                         0.454433       0.313545
                                                         1.335408       0.003370
                                                         4.395399       0.000000
                          1      15    5gxy2z            0.050000       0.000050
                                                         0.148931       0.004548
                                                         0.454433       0.701109
                                                         1.335408       0.007536
                                                         4.395399       0.000000
                          1      15    5gxyz2            0.050000       0.000050
                                                         0.148931       0.004548
                                                         0.454433       0.701109
                                                         1.335408       0.007536
                                                         4.395399       0.000000
                          1      15    5gxz3             0.050000       0.000022
                                                         0.148931       0.002034
                                                         0.454433       0.313545
                                                         1.335408       0.003370
                                                         4.395399       0.000000
                          1      15    5gy4              0.050000       0.000008
                                                         0.148931       0.000769
                                                         0.454433       0.118509
                                                         1.335408       0.001274
                                                         4.395399       0.000000
                          1      15    5gy3z             0.050000       0.000022
                                                         0.148931       0.002034
                                                         0.454433       0.313545
                                                         1.335408       0.003370
                                                         4.395399       0.000000
                          1      15    5gy2z2            0.050000       0.000029
                                                         0.148931       0.002626
                                                         0.454433       0.404785
                                                         1.335408       0.004351
                                                         4.395399       0.000000
                          1      15    5gyz3             0.050000       0.000022
                                                         0.148931       0.002034
                                                         0.454433       0.313545
                                                         1.335408       0.003370
                                                         4.395399       0.000000
                          1      15    5gz4              0.050000       0.000008
                                                         0.148931       0.000769
                                                         0.454433       0.118509
                                                         1.335408       0.001274
                                                         4.395399       0.000000

                          2       1    1s         

     AE Potential information for                                            ALL

       Description:                                       All-electron potential
                                          Krack, Parrinello, PCCP 2, 2105 (2000)

       Gaussian exponent of the core charge distribution:               8.154466
       Electronic configuration (s p d ...):                           4   4   0


 MOLECULE KIND INFORMATION


 All atoms are their own molecule, skipping detailed information


 TOTAL NUMBERS AND MAXIMUM NUMBERS

  Total number of            - Atomic kinds:                                   3
                             - Atoms:                                         16
                             - Shell sets:                                    32
                             - Shells:                                       256
                             - Primitive Cartesian functions:                208
                             - Cartesian basis functions:                   1136
                             - Spherical basis functions:                    896

  Maximum angular momentum of the orbital basis functions:                     4


 MODULE QUICKSTEP: ATOMIC COORDINATES IN ANGSTROM

   Atom Kind Element         X             Y             Z       Z(eff)     Mass
      1    1 N     7     15.954092     11.582468     15.912859   7.0000  14.0067
      2    2 C     6     15.314156     12.403825     16.430917   6.0000  12.0107
      3    2 C     6     14.544911     13.437842     17.017127   6.0000  12.0107
      4    1 N     7     13.897359     13.307703     18.160208   7.0000  14.0067
      5    3 O     8     13.287126     14.510972     18.368918   8.0000  15.9994
      6    2 C     6     14.312870     14.763562     16.527652   6.0000  12.0107
      7    3 O     8     14.854698     15.203918     15.370518   8.0000  15.9994
      8    2 C     6     14.613383     16.437817     14.884443   6.0000  12.0107
      9    1 N     7     13.830667     17.350794     15.409055   7.0000  14.0067
     10    3 O     8     13.915446     18.417532     14.521157   8.0000  15.9994
     11    1 N     7     14.728663     18.154102     13.462494   7.0000  14.0067
     12    2 C     6     15.170733     16.940272     13.668751   6.0000  12.0107
     13    1 N     7     16.115896     16.304192     12.745735   7.0000  14.0067
     14    3 O     8     16.228505     16.793095     11.631082   8.0000  15.9994
     15    3 O     8     16.712874     15.328570     13.200575   8.0000  15.9994
     16    1 N     7     13.541450     15.421134     17.356328   7.0000  14.0067



 SCF PARAMETERS         Density guess:                                    ATOMIC
                        --------------------------------------------------------
                        max_scf:                                             500
                        max_scf_history:                                       0
                        max_diis:                                              4
                        --------------------------------------------------------
                        eps_scf:                                        1.00E-06
                        eps_scf_history:                                0.00E+00
                        eps_diis:                                       1.00E-01
                        eps_eigval:                                     1.00E-05
                        --------------------------------------------------------
                        level_shift [a.u.]:                             0.000000
                        added MOs                                       840    0
                        --------------------------------------------------------
                        Mixing method:                            BROYDEN_MIXING
                                                charge density mixing in g-space
                        --------------------------------------------------------
                        No outer SCF

 PW_GRID| Information for grid number                                          1
 PW_GRID| Grid distributed over                                   192 processors
 PW_GRID| Real space group dimensions                                   192    1
 PW_GRID| the grid is blocked:                                                NO
 PW_GRID| Cutoff [a.u.]                                                    250.0
 PW_GRID| spherical cutoff:                                                   NO
 PW_GRID|   Bounds   1           -202     202                Points:         405
 PW_GRID|   Bounds   2           -202     202                Points:         405
 PW_GRID|   Bounds   3           -202     202                Points:         405
 PW_GRID| Volume element (a.u.^3)  0.2743E-02     Volume (a.u.^3)    182205.0337
 PW_GRID| Grid span                                                    FULLSPACE
 PW_GRID|   Distribution                         Average         Max         Min
 PW_GRID|   G-Vectors                           345990.2      346275      345870
 PW_GRID|   G-Rays                                 854.3         855         854
 PW_GRID|   Real Space Points                   345990.2      492075      328050

 PW_GRID| Information for grid number                                          2
 PW_GRID| Number of the reference grid                                         1
 PW_GRID| Grid distributed over                                   192 processors
 PW_GRID| Real space group dimensions                                   192    1
 PW_GRID| the grid is blocked:                                                NO
 PW_GRID| Cutoff [a.u.]                                                     83.3
 PW_GRID| spherical cutoff:                                                   NO
 PW_GRID|   Bounds   1           -120     119                Points:         240
 PW_GRID|   Bounds   2           -120     119                Points:         240
 PW_GRID|   Bounds   3           -120     119                Points:         240
 PW_GRID| Volume element (a.u.^3)  0.1318E-01     Volume (a.u.^3)    182205.0337
 PW_GRID| Grid span                                                    FULLSPACE
 PW_GRID|   Distribution                         Average         Max         Min
 PW_GRID|   G-Vectors                            72000.0       72240       71760
 PW_GRID|   G-Rays                                 300.0         301         299
 PW_GRID|   Real Space Points                    72000.0      115200       57600

 PW_GRID| Information for grid number                                          3
 PW_GRID| Number of the reference grid                                         1
 PW_GRID| Grid distributed over                                   192 processors
 PW_GRID| Real space group dimensions                                    12   16
 PW_GRID| the grid is blocked:                                                NO
 PW_GRID| Cutoff [a.u.]                                                     27.8
 PW_GRID| spherical cutoff:                                                   NO
 PW_GRID|   Bounds   1            -67      67                Points:         135
 PW_GRID|   Bounds   2            -67      67                Points:         135
 PW_GRID|   Bounds   3            -67      67                Points:         135
 PW_GRID| Volume element (a.u.^3)  0.7406E-01     Volume (a.u.^3)    182205.0337
 PW_GRID| Grid span                                                    FULLSPACE
 PW_GRID|   Distribution                         Average         Max         Min
 PW_GRID|   G-Vectors                            12814.5       12960       12690
 PW_GRID|   G-Rays                                  94.9          96          94
 PW_GRID|   Real Space Points                    12814.5       14580       11880

 PW_GRID| Information for grid number                                          4
 PW_GRID| Number of the reference grid                                         1
 PW_GRID| Grid distributed over                                   192 processors
 PW_GRID| Real space group dimensions                                    12   16
 PW_GRID| the grid is blocked:                                                NO
 PW_GRID| Cutoff [a.u.]                                                      9.3
 PW_GRID| spherical cutoff:                                                   NO
 PW_GRID|   Bounds   1            -40      39                Points:          80
 PW_GRID|   Bounds   2            -40      39                Points:          80
 PW_GRID|   Bounds   3            -40      39                Points:          80
 PW_GRID| Volume element (a.u.^3)  0.3559         Volume (a.u.^3)    182205.0337
 PW_GRID| Grid span                                                    FULLSPACE
 PW_GRID|   Distribution                         Average         Max         Min
 PW_GRID|   G-Vectors                             2666.7        2800        2560
 PW_GRID|   G-Rays                                  33.3          35          32
 PW_GRID|   Real Space Points                     2666.7        2800        2400

 POISSON| Solver                                                         WAVELET
 POISSON| Wavelet| Scaling function                                           40
 POISSON| Periodicity                                                       NONE

 RS_GRID| Information for grid number                                          1
 RS_GRID|   Bounds   1           -202     202                Points:         405
 RS_GRID|   Bounds   2           -202     202                Points:         405
 RS_GRID|   Bounds   3           -202     202                Points:         405
 RS_GRID| Real space distribution over                                  4 groups
 RS_GRID| Real space distribution along direction                              1
 RS_GRID| Border size                                                         37
 RS_GRID| Real space distribution over                                  6 groups
 RS_GRID| Real space distribution along direction                              2
 RS_GRID| Border size                                                         37
 RS_GRID| Real space distribution over                                  8 groups
 RS_GRID| Real space distribution along direction                              3
 RS_GRID| Border size                                                         37
 RS_GRID|   Distribution                         Average         Max         Min
 RS_GRID|   Planes                                 175.2         176         175
 RS_GRID|   Distribution                         Average         Max         Min
 RS_GRID|   Planes                                 141.5         142         141
 RS_GRID|   Distribution                         Average         Max         Min
 RS_GRID|   Planes                                 124.6         125         124

 RS_GRID| Information for grid number                                          2
 RS_GRID|   Bounds   1           -120     119                Points:         240
 RS_GRID|   Bounds   2           -120     119                Points:         240
 RS_GRID|   Bounds   3           -120     119                Points:         240
 RS_GRID| Real space distribution over                                  4 groups
 RS_GRID| Real space distribution along direction                              1
 RS_GRID| Border size                                                         41
 RS_GRID| Real space distribution over                                  6 groups
 RS_GRID| Real space distribution along direction                              2
 RS_GRID| Border size                                                         41
 RS_GRID| Real space distribution over                                  8 groups
 RS_GRID| Real space distribution along direction                              3
 RS_GRID| Border size                                                         41
 RS_GRID|   Distribution                         Average         Max         Min
 RS_GRID|   Planes                                 142.0         142         142
 RS_GRID|   Distribution                         Average         Max         Min
 RS_GRID|   Planes                                 122.0         122         122
 RS_GRID|   Distribution                         Average         Max         Min
 RS_GRID|   Planes                                 112.0         112         112

 RS_GRID| Information for grid number                                          3
 RS_GRID|   Bounds   1            -67      67                Points:         135
 RS_GRID|   Bounds   2            -67      67                Points:         135
 RS_GRID|   Bounds   3            -67      67                Points:         135
 RS_GRID| Real space fully replicated
 RS_GRID| Group size                                                           1

 RS_GRID| Information for grid number                                          4
 RS_GRID|   Bounds   1            -40      39                Points:          80
 RS_GRID|   Bounds   2            -40      39                Points:          80
 RS_GRID|   Bounds   3            -40      39                Points:          80
 RS_GRID| Real space fully replicated
 RS_GRID| Group size                                                           1

  HFX_INFO| Replica ID:                                                        1
  HFX_INFO| FRACTION:                                               0.2500000000
  HFX_INFO| Interaction Potential:                                       COULOMB
  HFX_INFO| EPS_SCHWARZ:                                                 1.0E-10
  HFX_INFO| EPS_SCHWARZ_FORCES                                           1.0E-08
  HFX_INFO| EPS_STORAGE_SCALING:                                         1.0E+00
  HFX_INFO| NBINS:                                                            64
  HFX_INFO| BLOCK_SIZE:                                                        1
  HFX_INFO| Number of periodic shells considered:                           NONE
  HFX_INFO| Number of periodic cells considered:                            NONE


 OVERLAP MATRIX CONDITION NUMBER
 1-Norm Condition Number (Estimate)
   CN : |A|*|A^-1|:  4.534E+001 *  9.740E+004   = 4.416E+006  Log(1-CN):  6.6450
 1-Norm and 2-Norm Condition Numbers using Diagonalization
   CN : |A|*|A^-1|:  4.534E+001 *  1.329E+005   = 6.025E+006  Log(1-CN):  6.7800
   CN : max/min ev:  1.388E+001 /  3.392E-005   = 4.094E+005  Log(2-CN):  5.6121

 Extrapolation method: initial_guess

 Atomic guess: The first density matrix is obtained in terms of atomic orbitals
               and electronic configurations assigned to each atomic kind

 Guess for atomic kind: N

 Electronic structure
    Total number of core electrons                                          0.00
    Total number of valence electrons                                       7.00
    Total number of electrons                                               7.00
    Multiplicity                                                   not specified
    S      2.00  2.00
    P      3.00


 *******************************************************************************
                  Iteration          Convergence                     Energy [au]
 *******************************************************************************
                          1        0.326076                     -53.972693897064
                          2        0.277784                     -53.975356210240
                          3        0.160682E-01                 -54.015017798370
                          4        0.471581E-03                 -54.015122641131
                          5        0.493838E-04                 -54.015122735628
                          6        0.172912E-06                 -54.015122736717

 Energy components [Hartree]           Total Energy ::          -54.015122736717
                                        Band Energy ::          -30.191862359396
                                     Kinetic Energy ::           53.695499289564
                                   Potential Energy ::         -107.710622026281
                                      Virial (-V/T) ::            2.005952518393
                                        Core Energy ::          -73.652199105609
                                          XC Energy ::           -6.133297426899
                                     Coulomb Energy ::           25.770373795791

 Orbital energies  State     L     Occupation   Energy[a.u.]          Energy[eV]

                       1     0          2.000     -14.018025         -381.449871
                       2     0          2.000      -0.677769          -18.443037

                       1     1          3.000      -0.266758           -7.258847


 Total Electron Density at R=0:                                       197.100878

 Guess for atomic kind: C

 Electronic structure
    Total number of core electrons                                          0.00
    Total number of valence electrons                                       6.00
    Total number of electrons                                               6.00
    Multiplicity                                                   not specified
    S      2.00  2.00
    P      2.00


 *******************************************************************************
                  Iteration          Convergence                     Energy [au]
 *******************************************************************************
                          1        0.408086E-01                 -37.383571338589
                          2        0.199264E-01                 -37.384203573320
                          3        0.259961E-02                 -37.384435836203
                          4        0.391371E-04                 -37.384439874383
                          5        0.433696E-05                 -37.384439875510
                          6        0.203636E-05                 -37.384439875519
                          7        0.125946E-05                 -37.384439875520
                          8        0.885025E-06                 -37.384439875521

 Energy components [Hartree]           Total Energy ::          -37.384439875521
                                        Band Energy ::          -20.876980269916
                                     Kinetic Energy ::           37.852147377771
                                   Potential Energy ::          -75.236587253292
                                      Virial (-V/T) ::            1.987643831733
                                        Core Energy ::          -50.615205923802
                                          XC Energy ::           -4.796518113706
                                     Coulomb Energy ::           18.027284161987

 Orbital energies  State     L     Occupation   Energy[a.u.]          Energy[eV]

                       1     0          2.000      -9.827795         -267.427905
                       2     0          2.000      -0.450543          -12.259887

                       1     1          2.000      -0.160152           -4.357971


 Total Electron Density at R=0:                                       119.599082

 Guess for atomic kind: O

 Electronic structure
    Total number of core electrons                                          0.00
    Total number of valence electrons                                       8.00
    Total number of electrons                                               8.00
    Multiplicity                                                   not specified
    S      2.00  2.00
    P      4.00


 *******************************************************************************
                  Iteration          Convergence                     Energy [au]
 *******************************************************************************
                          1        0.849670                     -74.335674168869
                          2        0.869389                     -74.324859694107
                          3        0.697432E-01                 -74.439224088863
                          4        0.175161E-02                 -74.439997666440
                          5        0.192648E-03                 -74.439998082258
                          6        0.198994E-05                 -74.439998087622
                          7        0.205802E-05                 -74.439998087622
                          8        0.520855E-08                 -74.439998087622

 Energy components [Hartree]           Total Energy ::          -74.439998087622
                                        Band Energy ::          -40.680979348956
                                     Kinetic Energy ::           74.005891336564
                                   Potential Energy ::         -148.445889424186
                                      Virial (-V/T) ::            2.005865840452
                                        Core Energy ::         -102.914102294567
                                          XC Energy ::           -7.750574740974
                                     Coulomb Energy ::           36.224678947918

 Orbital energies  State     L     Occupation   Energy[a.u.]          Energy[eV]

                       1     0          2.000     -18.778735         -510.995367
                       2     0          2.000      -0.871403          -23.712092

                       1     1          4.000      -0.345176           -9.392706


 Total Electron Density at R=0:                                       296.644588
 Re-scaling the density matrix to get the right number of electrons
                  # Electrons              Trace(P)               Scaling factor
                          112               112.000                        1.000

 Number of electrons:                                                        112
 Number of occupied orbitals:                                                 56
 Number of molecular orbitals:                                               896

 Number of orbital functions:                                                896
 Number of independent orbital functions:                                    896


 SCF WAVEFUNCTION OPTIMIZATION

  Step     Update method      Time    Convergence         Total energy    Change
  ------------------------------------------------------------------------------

  HFX_MEM_INFO| Est. max. program size before HFX [MiB]:                     823
  HFX_MEM_INFO| Number of cart. primitive ERI's calculated:       24172126427921
  HFX_MEM_INFO| Number of sph. ERI's calculated:                     91568292006
  HFX_MEM_INFO| Number of sph. ERI's stored in-core:                 91568292006
  HFX_MEM_INFO| Number of sph. ERI's stored on disk:                           0
  HFX_MEM_INFO| Number of sph. ERI's calculated on the fly:                    0
  HFX_MEM_INFO| Total memory consumption ERI's RAM [MiB]:                 321892
  HFX_MEM_INFO| Whereof max-vals [MiB]:                                        6
  HFX_MEM_INFO| Total compression factor ERI's RAM:                         2.17
  HFX_MEM_INFO| Total memory consumption ERI's disk [MiB]:                     0
  HFX_MEM_INFO| Total compression factor ERI's disk:                        0.00
  HFX_MEM_INFO| Size of density/Fock matrix [MiB]:                             6
  HFX_MEM_INFO| Size of buffers [MiB]:                                       279
  HFX_MEM_INFO| Est. max. program size after HFX  [MiB]:                    3300

     1 NoMix/Diag. 0.10E+00 1505.0     1.17855439      -897.9418986782 -8.98E+02
     2 Broy./Diag. 0.10E+00    2.1     0.13412869      -893.6533711657  4.29E+00
     3 Broy./Diag. 0.10E+00    1.9     0.13067521      -894.6674828912 -1.01E+00
     4 Broy./Diag. 0.10E+00    1.8     0.10726321      -894.3855880126  2.82E-01
     5 Broy./Diag. 0.10E+00    1.8     0.18888216      -894.1085774148  2.77E-01
     6 Broy./Diag. 0.10E+00    1.9     0.20931689      -895.9647660956 -1.86E+00
     7 Broy./Diag. 0.10E+00    1.9     0.13875917      -895.7498662930  2.15E-01
     8 Broy./Diag. 0.10E+00    1.9     0.03380182      -895.7713274619 -2.15E-02
     9 Broy./Diag. 0.10E+00    1.8     0.00786138      -895.8671101382 -9.58E-02
    10 Broy./Diag. 0.10E+00    1.8     0.07006719      -895.4143796540  4.53E-01
    11 Broy./Diag. 0.10E+00    1.9     0.14000243      -894.3383801018  1.08E+00
    12 Broy./Diag. 0.10E+00    1.9     0.03593693      -894.1311192256  2.07E-01
    13 Broy./Diag. 0.10E+00    1.9     0.07270161      -894.4131816268 -2.82E-01
    14 Broy./Diag. 0.10E+00    1.8     0.02867827      -894.4237325636 -1.06E-02
    15 Broy./Diag. 0.10E+00    1.8     0.01195976      -894.3384216089  8.53E-02
    16 Broy./Diag. 0.10E+00    1.9     0.02665712      -894.2076238761  1.31E-01
    17 Broy./Diag. 0.10E+00    1.9     0.01582338      -894.1911015649  1.65E-02
    18 Broy./Diag. 0.10E+00    1.9     0.03170477      -894.0234856263  1.68E-01
    19 Broy./Diag. 0.10E+00    1.9     0.03178302      -893.9563336480  6.72E-02
    20 Broy./Diag. 0.10E+00    1.8     0.01739919      -894.1456860632 -1.89E-01
    21 Broy./Diag. 0.10E+00    1.8     0.00610970      -894.0775331350  6.82E-02
    22 Broy./Diag. 0.10E+00    1.8     0.01565143      -894.1421798501 -6.46E-02
    23 Broy./Diag. 0.10E+00    1.8     0.02188204      -894.2214521742 -7.93E-02
    24 Broy./Diag. 0.10E+00    1.9     0.00871785      -894.2449347169 -2.35E-02
    25 Broy./Diag. 0.10E+00    1.8     0.00692866      -894.2460644795 -1.13E-03
    26 Broy./Diag. 0.10E+00    1.8     0.03294286      -894.3403002305 -9.42E-02
    27 Broy./Diag. 0.10E+00    1.8     0.03343211      -894.2399585540  1.00E-01
    28 Broy./Diag. 0.10E+00    1.8     0.04108002      -894.1409993977  9.90E-02
    29 Broy./Diag. 0.10E+00    1.9     0.02505710      -894.2080701961 -6.71E-02
    30 Broy./Diag. 0.10E+00    1.8     0.02633544      -894.2135444065 -5.47E-03
    31 Broy./Diag. 0.10E+00    1.8     0.01308150      -894.2777738637 -6.42E-02
    32 Broy./Diag. 0.10E+00    1.8     0.00828207      -894.2884645966 -1.07E-02
    33 Broy./Diag. 0.10E+00    1.8     0.01001910      -894.3084055789 -1.99E-02
    34 Broy./Diag. 0.10E+00    1.9     0.01515183      -894.2903411732  1.81E-02
    35 Broy./Diag. 0.10E+00    1.9     0.01249218      -894.2211890697  6.92E-02
    36 Broy./Diag. 0.10E+00    1.9     0.00580623      -894.2327646203 -1.16E-02
    37 Broy./Diag. 0.10E+00    1.9     0.00877889      -894.2106745407  2.21E-02
    38 Broy./Diag. 0.10E+00    1.8     0.00616540      -894.2035025886  7.17E-03
    39 Broy./Diag. 0.10E+00    1.8     0.00447145      -894.1889316818  1.46E-02
    40 Broy./Diag. 0.10E+00    1.8     0.00736293      -894.1716249888  1.73E-02
    41 Broy./Diag. 0.10E+00    1.8     0.00795114      -894.1635387163  8.09E-03
    42 Broy./Diag. 0.10E+00    1.8     0.00342430      -894.1070778420  5.65E-02
    43 Broy./Diag. 0.10E+00    1.8     0.00142008      -894.0859725094  2.11E-02
    44 Broy./Diag. 0.10E+00    1.8     0.00235323      -894.1057293317 -1.98E-02
    45 Broy./Diag. 0.10E+00    1.8     0.00207229      -894.1239415064 -1.82E-02
    46 Broy./Diag. 0.10E+00    1.8     0.00241839      -894.1191178421  4.82E-03
    47 Broy./Diag. 0.10E+00    1.8     0.00235330      -894.1125145788  6.60E-03
    48 Broy./Diag. 0.10E+00    1.9     0.00163676      -894.1147548735 -2.24E-03
    49 Broy./Diag. 0.10E+00    1.9     0.00132878      -894.1116892661  3.07E-03
    50 Broy./Diag. 0.10E+00    1.8     0.00066996      -894.1107630438  9.26E-04
    51 Broy./Diag. 0.10E+00    1.8     0.00114042      -894.1100838131  6.79E-04
    52 Broy./Diag. 0.10E+00    1.9     0.00163692      -894.1104842561 -4.00E-04
    53 Broy./Diag. 0.10E+00    1.8     0.00126232      -894.1049957337  5.49E-03
    54 Broy./Diag. 0.10E+00    1.8     0.00077469      -894.1028658086  2.13E-03
    55 Broy./Diag. 0.10E+00    2.0     0.00053223      -894.1000423584  2.82E-03
    56 Broy./Diag. 0.10E+00    1.9     0.00032773      -894.0994283660  6.14E-04
    57 Broy./Diag. 0.10E+00    1.8     0.00025355      -894.1000718380 -6.43E-04
    58 Broy./Diag. 0.10E+00    1.8     0.00045339      -894.1011741378 -1.10E-03
    59 Broy./Diag. 0.10E+00    1.8     0.00030720      -894.1012130620 -3.89E-05
    60 Broy./Diag. 0.10E+00    1.9     0.00044988      -894.1018366778 -6.24E-04
    61 Broy./Diag. 0.10E+00    1.9     0.00058621      -894.1021313411 -2.95E-04
    62 Broy./Diag. 0.10E+00    1.9     0.00029113      -894.1016009506  5.30E-04
    63 Broy./Diag. 0.10E+00    1.8     0.00022385      -894.1018341354 -2.33E-04
    64 Broy./Diag. 0.10E+00    1.8     0.00019099      -894.1016389977  1.95E-04
    65 Broy./Diag. 0.10E+00    1.8     0.00022001      -894.1016274378  1.16E-05
    66 Broy./Diag. 0.10E+00    1.8     0.00019016      -894.1008772864  7.50E-04
    67 Broy./Diag. 0.10E+00    1.9     0.00010633      -894.1003443582  5.33E-04
    68 Broy./Diag. 0.10E+00    1.8     0.00005466      -894.1000098381  3.35E-04
    69 Broy./Diag. 0.10E+00    1.8     0.00009256      -894.0996970479  3.13E-04
    70 Broy./Diag. 0.10E+00    1.8     0.00013992      -894.0997939246 -9.69E-05
    71 Broy./Diag. 0.10E+00    1.8     0.00014601      -894.1000063669 -2.12E-04
    72 Broy./Diag. 0.10E+00    1.8     0.00015218      -894.1000901285 -8.38E-05
    73 Broy./Diag. 0.10E+00    1.8     0.00004974      -894.1000583742  3.18E-05
    74 Broy./Diag. 0.10E+00    1.8     0.00003397      -894.0999864577  7.19E-05
    75 Broy./Diag. 0.10E+00    1.9     0.00012180      -894.1001132390 -1.27E-04
    76 Broy./Diag. 0.10E+00    1.9     0.00007659      -894.1000620784  5.12E-05
    77 Broy./Diag. 0.10E+00    1.8     0.00005400      -894.1000882749 -2.62E-05
    78 Broy./Diag. 0.10E+00    1.8     0.00004301      -894.1000926270 -4.35E-06
    79 Broy./Diag. 0.10E+00    1.8     0.00009797      -894.1000706259  2.20E-05
    80 Broy./Diag. 0.10E+00    1.8     0.00011212      -894.1001298688 -5.92E-05
    81 Broy./Diag. 0.10E+00    1.8     0.00002710      -894.1001672711 -3.74E-05
    82 Broy./Diag. 0.10E+00    1.8     0.00003637      -894.1001777963 -1.05E-05
    83 Broy./Diag. 0.10E+00    1.8     0.00002648      -894.1001323197  4.55E-05
    84 Broy./Diag. 0.10E+00    1.8     0.00001453      -894.1001090310  2.33E-05
    85 Broy./Diag. 0.10E+00    1.8     0.00002241      -894.1001089737  5.73E-08
    86 Broy./Diag. 0.10E+00    1.9     0.00005715      -894.1000991935  9.78E-06
    87 Broy./Diag. 0.10E+00    1.9     0.00003739      -894.1001122428 -1.30E-05
    88 Broy./Diag. 0.10E+00    1.8     0.00002238      -894.1001137923 -1.55E-06
    89 Broy./Diag. 0.10E+00    1.8     0.00000574      -894.1001022986  1.15E-05
    90 Broy./Diag. 0.10E+00    1.8     0.00002396      -894.1001208099 -1.85E-05
    91 Broy./Diag. 0.10E+00    1.8     0.00000954      -894.1001607045 -3.99E-05
    92 Broy./Diag. 0.10E+00    1.9     0.00001743      -894.1001578518  2.85E-06
    93 Broy./Diag. 0.10E+00    1.8     0.00000232      -894.1001640564 -6.20E-06
    94 Broy./Diag. 0.10E+00    1.8     0.00000842      -894.1001750916 -1.10E-05
    95 Broy./Diag. 0.10E+00    1.8     0.00000659      -894.1001809936 -5.90E-06
    96 Broy./Diag. 0.10E+00    1.8     0.00000508      -894.1001682395  1.28E-05
    97 Broy./Diag. 0.10E+00    1.9     0.00000174      -894.1001660368  2.20E-06
    98 Broy./Diag. 0.10E+00    1.9     0.00000598      -894.1001657862  2.51E-07
    99 Broy./Diag. 0.10E+00    1.9     0.00000448      -894.1001624178  3.37E-06
   100 Broy./Diag. 0.10E+00    1.9     0.00000215      -894.1001593317  3.09E-06
   101 Broy./Diag. 0.10E+00    1.9     0.00000656      -894.1001551929  4.14E-06
   102 Broy./Diag. 0.10E+00    1.8     0.00000571      -894.1001529458  2.25E-06
   103 Broy./Diag. 0.10E+00    1.8     0.00000589      -894.1001533892 -4.43E-07
   104 Broy./Diag. 0.10E+00    1.8     0.00001934      -894.1001636513 -1.03E-05
   105 Broy./Diag. 0.10E+00    1.9     0.00000972      -894.1001611447  2.51E-06
   106 Broy./Diag. 0.10E+00    1.8     0.00000136      -894.1001583456  2.80E-06
   107 Broy./Diag. 0.10E+00    1.8     0.00000060      -894.1001600771 -1.73E-06

  *** SCF run converged in   107 steps ***


  Electronic density on regular grids:        -78.0146718290       33.9853281710
  Core density on regular grids:              112.0000000000        0.0000000000
  Hard and soft densities (Lebedev):        -1345.8731502114    -1311.8878273592
  Total Rho_soft + Rho1_hard - Rho1_soft     -111.9999946812
  Total charge density (r-space):               0.0000053188
  Total Rho_soft + Rho0_soft (g-space):         0.0000049429

  Overlap energy of the core charge distribution:               0.00002865312492
  Self energy of the core charge distribution:               -796.91179469370638
  Core Hamiltonian energy:                                   -114.12988233289173
  Hartree energy:                                             162.64871546520305
  Exchange-correlation energy:                                -29.85412487476690
  Hartree-Fock Exchange energy:                               -26.50320053357602

  GAPW| Exc from hard and soft atomic rho1:                   -53.70257001601300
  GAPW| local Eh = 1 center integrals:                        -35.64733174452375

  Total energy:                                              -894.10016007714978

 !-----------------------------------------------------------------------------!
                     Mulliken Population Analysis

 #  Atom  Element  Kind  Atomic population                           Net charge
       1     N        1          7.058070                             -0.058070
       2     C        2          5.728853                              0.271147
       3     C        2          5.679203                              0.320797
       4     N        1          6.728680                              0.271320
       5     O        3          9.108864                             -1.108864
       6     C        2          5.624585                              0.375415
       7     O        3          9.258640                             -1.258640
       8     C        2          5.171541                              0.828459
       9     N        1          6.521439                              0.478561
      10     O        3          9.165584                             -1.165584
      11     N        1          6.263640                              0.736360
      12     C        2          5.508596                              0.491404
      13     N        1          5.459606                              1.540394
      14     O        3          9.173754                             -1.173754
      15     O        3          9.138691                             -1.138691
      16     N        1          6.410255                              0.589745
 # Total charge                            112.000000                 -0.000000

 !-----------------------------------------------------------------------------!

 !-----------------------------------------------------------------------------!
                           Hirshfeld Charges

  #Atom  Element  Kind  Ref Charge     Population                    Net charge
      1       N      1       7.000          7.197                        -0.197
      2       C      2       6.000          5.875                         0.125
      3       C      2       6.000          5.859                         0.141
      4       N      1       7.000          7.041                        -0.041
      5       O      3       8.000          8.100                        -0.100
      6       C      2       6.000          5.702                         0.298
      7       O      3       8.000          8.272                        -0.272
      8       C      2       6.000          5.697                         0.303
      9       N      1       7.000          7.079                        -0.079
     10       O      3       8.000          8.094                        -0.094
     11       N      1       7.000          7.024                        -0.024
     12       C      2       6.000          5.813                         0.187
     13       N      1       7.000          6.583                         0.417
     14       O      3       8.000          8.280                        -0.280
     15       O      3       8.000          8.298                        -0.298
     16       N      1       7.000          7.079                        -0.079

  Total Charge                                                            0.007
 !-----------------------------------------------------------------------------!
  
 -------------------------------------------------------------------------------
 -                                                                             -
 -                          BANDSTRUCTURE CALCULATION                          -
 -                                                                             -
 -------------------------------------------------------------------------------
  
 Number of occupied molecular orbitals (MOs) = Number of occupied bands       56
 Number of unoccupied (= virtual) MOs = Number of unoccupied bands           840
 Number of Gaussian basis functions for MOs                                  896
 K-point mesh for the density of states (DOS) and the self-energy      1   1   1
  
 -------------------------------------------------------------------------------
 -                                                                             -
 -                                GW CALCULATION                               -
 -                                                                             -
 -------------------------------------------------------------------------------
  
 Input: Number of time/freq. points                                           30
 Input: ω_max for fitting Σ(iω) (eV)                                        10.0
 Input: Filter threshold for sparse tensor operations                    1.0E-11
 Input: Apply Hedin shift                                                      F
  
 Number of auxiliary Gaussian basis functions for χ, ε, W                    900
 Cutoff radius for the truncated Coulomb operator in Σ^x:               2645.9 Å
 Cutoff radius for the truncated Coulomb operator in RI metric:            9.0 Å
 Regularization parameter of RI                                          1.0E-02
 Regularization parameter of minimax grids                               1.0E-06
 Lattice sum size for V(k):                                                    3
  
 K-point mesh 1 for χ, ε, W                                            1   1   1
 K-point mesh 2 for χ, ε, W (for k-point extrapolation of W)           1   1   1
 Approximate the k-point extrapolation                                         F
 Group size for tensor operations                                            192
 
 Computed 3-center integrals (µν|P), execution time                        1.7 s
 Percentage of non-zero (µν|P)                                         100.000 %
 Max. distance between µ,ν in non-zero (µν|P)                              7.8 A
 Required memory if storing all 3-center integrals (µν|P)                   5 GB
 
 Number of i and j atoms in M_λνP(τ), N_νλQ(τ):                               67
 Number of inner loop atoms for µ in M_λνP = sum_µ (µν|P) G_µλ                16
 
 SCF direct band gap (eV)                                                   5.52
 Max. SCF eigval diff. (eV)                                             10616.99
 E-Range for minimax grid                                                1924.18
 Number of Padé parameters for analytic continuation:                          5
 
 Computed χ(iτ,k=0) for time point            1 / 30,    Execution time    2.5 s
 Computed χ(iτ,k=0) for time point            2 / 30,    Execution time    2.3 s
 Computed χ(iτ,k=0) for time point            3 / 30,    Execution time    2.2 s
 Computed χ(iτ,k=0) for time point            4 / 30,    Execution time    2.2 s
 Computed χ(iτ,k=0) for time point            5 / 30,    Execution time    2.2 s
 Computed χ(iτ,k=0) for time point            6 / 30,    Execution time    2.2 s
 Computed χ(iτ,k=0) for time point            7 / 30,    Execution time    2.2 s
 Computed χ(iτ,k=0) for time point            8 / 30,    Execution time    2.2 s
 Computed χ(iτ,k=0) for time point            9 / 30,    Execution time    2.2 s
 Computed χ(iτ,k=0) for time point           10 / 30,    Execution time    2.2 s
 Computed χ(iτ,k=0) for time point           11 / 30,    Execution time    2.2 s
 Computed χ(iτ,k=0) for time point           12 / 30,    Execution time    2.2 s
 Computed χ(iτ,k=0) for time point           13 / 30,    Execution time    2.3 s
 Computed χ(iτ,k=0) for time point           14 / 30,    Execution time    2.2 s
 Computed χ(iτ,k=0) for time point           15 / 30,    Execution time    2.2 s
 Computed χ(iτ,k=0) for time point           16 / 30,    Execution time    2.2 s
 Computed χ(iτ,k=0) for time point           17 / 30,    Execution time    2.2 s
 Computed χ(iτ,k=0) for time point           18 / 30,    Execution time    2.2 s
 Computed χ(iτ,k=0) for time point           19 / 30,    Execution time    2.2 s
 Computed χ(iτ,k=0) for time point           20 / 30,    Execution time    2.2 s
 Computed χ(iτ,k=0) for time point           21 / 30,    Execution time    2.2 s
 Computed χ(iτ,k=0) for time point           22 / 30,    Execution time    2.2 s
 Computed χ(iτ,k=0) for time point           23 / 30,    Execution time    2.2 s
 Computed χ(iτ,k=0) for time point           24 / 30,    Execution time    2.2 s
 Computed χ(iτ,k=0) for time point           25 / 30,    Execution time    2.2 s
 Computed χ(iτ,k=0) for time point           26 / 30,    Execution time    2.2 s
 Computed χ(iτ,k=0) for time point           27 / 30,    Execution time    2.2 s
 Computed χ(iτ,k=0) for time point           28 / 30,    Execution time    2.2 s
 Computed χ(iτ,k=0) for time point           29 / 30,    Execution time    2.3 s
 Computed χ(iτ,k=0) for time point           30 / 30,    Execution time    2.2 s
 
 Computed W(iτ,k) for k-point batch           1 /  1,    Execution time    5.0 s
 
 Computed Σ^x(k=0),                                      Execution time    2.6 s
 
 Computed Σ^c(iτ,k=0) for time point          1 / 30,    Execution time    3.7 s
 Computed Σ^c(iτ,k=0) for time point          2 / 30,    Execution time    3.8 s
 Computed Σ^c(iτ,k=0) for time point          3 / 30,    Execution time    3.8 s
 Computed Σ^c(iτ,k=0) for time point          4 / 30,    Execution time    3.8 s
 Computed Σ^c(iτ,k=0) for time point          5 / 30,    Execution time    3.8 s
 Computed Σ^c(iτ,k=0) for time point          6 / 30,    Execution time    3.8 s
 Computed Σ^c(iτ,k=0) for time point          7 / 30,    Execution time    3.8 s
 Computed Σ^c(iτ,k=0) for time point          8 / 30,    Execution time    3.8 s
 Computed Σ^c(iτ,k=0) for time point          9 / 30,    Execution time    3.8 s
 Computed Σ^c(iτ,k=0) for time point         10 / 30,    Execution time    3.8 s
 Computed Σ^c(iτ,k=0) for time point         11 / 30,    Execution time    3.8 s
 Computed Σ^c(iτ,k=0) for time point         12 / 30,    Execution time    3.8 s
 Computed Σ^c(iτ,k=0) for time point         13 / 30,    Execution time    3.8 s
 Computed Σ^c(iτ,k=0) for time point         14 / 30,    Execution time    3.8 s
 Computed Σ^c(iτ,k=0) for time point         15 / 30,    Execution time    3.8 s
 Computed Σ^c(iτ,k=0) for time point         16 / 30,    Execution time    3.8 s
 Computed Σ^c(iτ,k=0) for time point         17 / 30,    Execution time    3.8 s
 Computed Σ^c(iτ,k=0) for time point         18 / 30,    Execution time    3.8 s
 Computed Σ^c(iτ,k=0) for time point         19 / 30,    Execution time    3.8 s
 Computed Σ^c(iτ,k=0) for time point         20 / 30,    Execution time    3.8 s
 Computed Σ^c(iτ,k=0) for time point         21 / 30,    Execution time    3.8 s
 Computed Σ^c(iτ,k=0) for time point         22 / 30,    Execution time    3.9 s
 Computed Σ^c(iτ,k=0) for time point         23 / 30,    Execution time    3.8 s
 Computed Σ^c(iτ,k=0) for time point         24 / 30,    Execution time    3.8 s
 Computed Σ^c(iτ,k=0) for time point         25 / 30,    Execution time    3.8 s
 Computed Σ^c(iτ,k=0) for time point         26 / 30,    Execution time    3.8 s
 Computed Σ^c(iτ,k=0) for time point         27 / 30,    Execution time    3.8 s
 Computed Σ^c(iτ,k=0) for time point         28 / 30,    Execution time    3.8 s
 Computed Σ^c(iτ,k=0) for time point         29 / 30,    Execution time    3.8 s
 Computed Σ^c(iτ,k=0) for time point         30 / 30,    Execution time    3.8 s
 
 Sparsity of Σ^c(iτ,k=0): Percentage of skipped atom pairs:                0.0 %

 
 SCF valence band maximum (eV):                                           -9.410
 SCF conduction band minimum (eV):                                        -3.892
 SCF indirect band gap (eV):                                               5.518
 SCF direct band gap (eV):                                                 5.518
 
 G0W0 valence band maximum (eV):                                         -11.057
 G0W0 conduction band minimum (eV):                                       -1.817
 G0W0 indirect band gap (eV):                                              9.240
 G0W0 direct band gap (eV):                                                9.240
 
 Hartree-Fock with SCF orbitals valence band maximum (eV):               -11.879
 Hartree-Fock with SCF orbitals conduction band minimum (eV)               0.161
 Hartree-Fock with SCF orbitals indirect band gap (eV):                   12.039
 Hartree-Fock with SCF orbitals direct band gap (eV):                     12.039

 ENERGY| Total FORCE_EVAL ( QS ) energy [hartree]           -894.100160077149781

 -------------------------------------------------------------------------------
 -                                                                             -
 -                                DBCSR STATISTICS                             -
 -                                                                             -
 -------------------------------------------------------------------------------
 COUNTER                                    TOTAL       BLAS       SMM       ACC
 flops    56 x    56 x    64          23365156864     100.0%      0.0%      0.0%     
 flops    56 x    56 x    32          58412892160     100.0%      0.0%      0.0%     
 flops inhomo. stacks                           0       0.0%      0.0%      0.0%
 flops total                        81.778049E+09     100.0%      0.0%      0.0%
 flops max/rank                      1.803928E+09     100.0%      0.0%      0.0%
 matmuls inhomo. stacks                         0       0.0%      0.0%      0.0%
 matmuls total                             349248     100.0%      0.0%      0.0%
 number of processed stacks                336408     100.0%      0.0%      0.0%
 average stack size                                     1.0       0.0       0.0
 marketing flops                     9.620942E+09
 -------------------------------------------------------------------------------
 # multiplications                            107
 max memory usage/rank              20.969726E+09
 # max total images/rank                        3
 # max 3D layers                                1
 # MPI messages exchanged                  903936
 MPI messages size (bytes):
  total size                        20.616315E+09
  min size                           0.000000E+00
  max size                          86.016000E+03
  average size                      22.807273E+03
 MPI breakdown and total messages size (bytes):
             size <=      128              202872                        0
       128 < size <=     8192                   0                        0
      8192 < size <=    32768              533716              11866652672
     32768 < size <=   131072              167348               8749662208
    131072 < size <=  4194304                   0                        0
   4194304 < size <= 16777216                   0                        0
  16777216 < size                               0                        0
 -------------------------------------------------------------------------------

 *** WARNING in dbcsr_mm.F:301 :: Using a non-square number of MPI ranks ***
 *** might lead to poor performance. Used ranks: 192 Suggested: 196 400  ***

 -------------------------------------------------------------------------------
 -                                                                             -
 -                      DBCSR MESSAGE PASSING PERFORMANCE                      -
 -                                                                             -
 -------------------------------------------------------------------------------
 ROUTINE             CALLS      AVE VOLUME [Bytes]
 MP_Bcast                3                     12.
 MP_Allreduce          666                      9.
 MP_Alltoall          6418                 111011.
 MP_ISend            10058                  12426.
 MP_IRecv            10272                  11720.
 -------------------------------------------------------------------------------

 -------------------------------------------------------------------------------
 -                                                                             -
 -                                DBM STATISTICS                               -
 -                                                                             -
 -------------------------------------------------------------------------------
    M  x    N  x    K                                          COUNT     PERCENT
    ?  x    ?  x    ?                                          79648      46.05%
 >999  x   ??  x   ??                                          46464      26.86%
   ??  x   ??  x >999                                          34944      20.20%
   ??  x >999  x   ??                                          11904       6.88%
 -------------------------------------------------------------------------------

 -------------------------------------------------------------------------------
 -                                                                             -
 -                                GRID STATISTICS                              -
 -                                                                             -
 -------------------------------------------------------------------------------
 LP    KERNEL             BACKEND                              COUNT     PERCENT
 8     collocate ortho    CPU                                  26244      46.88%
 8     integrate ortho    CPU                                  26244      46.88%
 2     collocate general  CPU                                   1728       3.09%
 2     integrate general  CPU                                   1728       3.09%
 0     collocate general  CPU                                     16       0.03%
 0     integrate general  CPU                                     16       0.03%
 -------------------------------------------------------------------------------

 -------------------------------------------------------------------------------
 -                                                                             -
 -                          OFFLOAD MEMPOOL STATISTICS                         -
 -                                                                             -
 -------------------------------------------------------------------------------
 Memory consumption                Number of allocations  Used [MiB]  Size [MiB]
 Host                                                165         309         643
 -------------------------------------------------------------------------------

 MEMORY| Estimated peak process memory [MiB]                                4254

 -------------------------------------------------------------------------------
 ----                             MULTIGRID INFO                            ----
 -------------------------------------------------------------------------------
 count for grid        1:       62147582          cutoff [a.u.]          250.00
 count for grid        2:       11451109          cutoff [a.u.]           83.33
 count for grid        3:        8162241          cutoff [a.u.]           27.78
 count for grid        4:        3699011          cutoff [a.u.]            9.26
 total gridlevel count  :       85459943

 -------------------------------------------------------------------------------
 -                                                                             -
 -                         MESSAGE PASSING PERFORMANCE                         -
 -                                                                             -
 -------------------------------------------------------------------------------

 ROUTINE             CALLS      AVE VOLUME [Bytes]
 MP_Group             2994
 MP_Bcast            14498                 123197.
 MP_Allreduce        51907                  50457.
 MP_Sync              4099
 MP_Alltoall          5271                8123074.
 MP_SendRecv         41256                  69520.
 MP_ISendRecv        82894                  72077.
 MP_Wait            124773
 MP_comm_split        1620
 MP_ISend            46541                 508809.
 MP_IRecv            48195                 493277.
 -------------------------------------------------------------------------------


 -------------------------------------------------------------------------------
 -                                                                             -
 -                           R E F E R E N C E S                               -
 -                                                                             -
 -------------------------------------------------------------------------------
 
 CP2K version 2025.2 (Development Version), the CP2K developers group (2025).
 CP2K is freely available from https://www.cp2k.org/ .
 
 M. Graml, K. Zollner, D. Hernangómez-Pérez, P. E. Faria Junior, J. Wilhelm.
 J. Chem. Theory Comput. 20, 2202-2208 (2024).
 Low-scaling GW algorithm applied to twisted transition-metal dichalcogenide 
 heterobilayers.
 https://doi.org/10.1021/acs.jctc.3c01230

 T. D. Kuehne, M. Iannuzzi, M. Del Ben, V. V. Rybkin, P. Seewald, F. Stein, T. 
 Laino, R. Z. Khaliullin, O. Schuett, F. Schiffmann, D. Golze, J. Wilhelm, S. 
 Chulkov, M. H. Bani-Hashemian, V. Weber, U. Borstnik, M. Taillefumier, A. S. 
 Jakobovits, A. Lazzaro, H. Pabst, T. Mueller, R. Schade, M. Guidon, S. 
 Andermatt, N. Holmberg, G. K. Schenter, A. Hehn, A. Bussy, F. Belleflamme, G. 
 Tabacchi, A. Gloess, M. Lass, I. Bethune, C. J. Mundy, C. Plessl, M. Watkins, 
 J. VandeVondele, M. Krack, J. Hutter.
 J. Chem. Phys. 152, 194103 (2020).
 CP2K: An electronic structure and molecular dynamics software package - 
 Quickstep: Efficient and accurate electronic structure calculations.
 https://doi.org/10.1063/5.0007045

 O. Schuett, P. Messmer, J. Hutter, J. VandeVondele.
 Electronic Structure Calculations on Graphics Processing Units, 173-190 (2016).
 GPU-Accelerated Sparse Matrix-Matrix Multiplication for Linear Scaling Density 
 Functional Theory.
 https://doi.org/10.1002/9781118670712.ch8

 A. Heinecke, G. Henry, M. Hutchinson, H. Pabst.
 Proceedings of Intl. Supercomputing Conference, 981-991 (2016).
 LIBXSMM: Accelerating Small Matrix Multiplications by Runtime Code Generation.
 https://doi.org/10.1109/SC.2016.83

 J. Hutter, M. Iannuzzi, F. Schiffmann, J. VandeVondele.
 WIREs Comput Mol Sci. 4, 15-25 (2014).
 CP2K: atomistic simulations of condensed matter systems.
 https://doi.org/10.1002/wcms.1159

 U. Borstnik, J. VandeVondele, V. Weber, J. Hutter.
 Parallel Comput. 40, 47-58 (2014).
 Sparse matrix multiplication: The distributed block-compressed sparse row 
 library.
 https://doi.org/10.1016/j.parco.2014.03.012

 A. Marek, V. Blum, R. Johanni, V. Havu, B. Lang, T. Auckenthaler, A. Heinecke, 
 H. Bungartz, H. Lederer.
 J. Phys. Condens. Matter 26, 213201 (2014).
 The ELPA library: scalable parallel eigenvalue solutions for electronic 
 structure theory and computational science.
 https://doi.org/10.1088/0953-8984/26/21/213201

 M. Guidon, J. Hutter, J. VandeVondele.
 J. Chem. Theory Comput. 5, 3010-3021 (2009).
 Robust Periodic Hartree-Fock Exchange for Large-Scale Simulations Using 
 Gaussian Basis Sets.
 https://doi.org/10.1021/ct900494g

 M. Guidon, F. Schiffmann, J. Hutter, J. VandeVondele.
 J. Chem. Phys. 128, 214104 (2008).
 Ab initio molecular dynamics using hybrid density functionals.
 https://doi.org/10.1063/1.2931945

 L. Genovese, T. Deutsch, S. Goedecker.
 J. Chem. Phys. 127, 054704 (2007).
 Efficient and accurate three-dimensional Poisson solver for surface problems.
 https://doi.org/10.1063/1.2754685

 J. VandeVondele, J. Hutter.
 J. Chem. Phys. 127, 114105 (2007).
 Gaussian basis sets for accurate calculations on molecular systems in gas and 
 condensed phases.
 https://doi.org/10.1063/1.2770708

 L. Genovese, T. Deutsch, A. Neelov, S. Goedecker, G. Beylkin.
 J. Chem. Phys. 125, 074105 (2006).
 Efficient solution of Poisson's equation with free boundary conditions.
 https://doi.org/10.1063/1.2335442

 M. Frigo, S. G. Johnson.
 Proc. IEEE 93, 216-231 (2005).
 The design and implementation of FFTW3.
 https://doi.org/10.1109/JPROC.2004.840301

 M. Krack, M. Parrinello.
 Phys. Chem. Chem. Phys. 2, 2105-2112 (2000).
 All-electron ab-initio molecular dynamics.
 https://doi.org/10.1039/b001167n

 G. Lippert, J. Hutter, M. Parrinello.
 Theor. Chem. Acc. 103, 124-140 (1999).
 The Gaussian and augmented-plane-wave density functional method for ab initio 
 molecular dynamics simulations.
 https://doi.org/10.1007/s002140050523

 J. P. Perdew, K. Burke, M. Ernzerhof.
 Phys. Rev. Lett. 77, 3865-3868 (1996).
 Generalized gradient approximation made simple.
 https://doi.org/10.1103/PhysRevLett.77.3865


 -------------------------------------------------------------------------------
 -                                                                             -
 -                                T I M I N G                                  -
 -                                                                             -
 -------------------------------------------------------------------------------
 SUBROUTINE                       CALLS  ASD         SELF TIME        TOTAL TIME
                                MAXIMUM       AVERAGE  MAXIMUM  AVERAGE  MAXIMUM
 CP2K                                 1  1.0    0.017    0.026 1897.932 1898.028
 qs_energies                          1  2.0    0.000    0.000 1897.617 1897.713
 scf_env_do_scf                       1  3.0    0.000    0.000 1700.699 1700.785
 scf_env_do_scf_inner_loop          107  4.0    0.002    0.005 1700.699 1700.785
 qs_ks_build_kohn_sham_matrix       108  7.0    0.014    0.017 1670.283 1670.444
 qs_ks_update_qs_env                107  5.0    0.001    0.001 1668.918 1669.078
 rebuild_ks_matrix                  107  6.0    0.000    0.000 1668.908 1669.068
 hfx_ks_matrix                      108  8.0    0.002    0.002 1575.025 1575.113
 integrate_four_center              108  9.0    6.409    8.039 1575.019 1575.110
 integrate_four_center_main         108 10.0   18.084   62.160 1460.301 1518.564
 integrate_four_center_bin        20517 11.0 1442.216 1518.332 1442.216 1518.332
 mp_sync                           4099 12.0  118.596  201.602  118.596  201.602
 qs_energies_properties               1  3.0    0.000    0.000  192.690  192.699
 post_scf_bandstructure               1  4.0    0.000    0.000  192.690  192.699
 gw                                   1  5.0    0.000    0.000  192.414  192.424
 gw_calc_large_cell_Gamma             1  6.0    0.000    0.000  188.950  188.965
 get_Sigma_c                          1  7.0    0.001    0.002  113.888  113.896
 compute_3c_integrals               152  8.6    0.003    0.004  103.687  103.695
 build_3c_integrals                 156  9.6   52.276   92.982   62.911  100.586
 dbt_total                          699  9.0    0.004    0.005   77.824   77.832
 dbt_contract                       243  9.9    0.009    0.013   72.303   72.307
 contract_to_Sigma                   61  8.0    0.001    0.001   71.626   71.630
 dbt_tas_multiply                   486 12.4    0.001    0.001   71.371   71.376
 dbt_tas_total                      486 13.4    0.065    0.084   71.361   71.365
 get_mat_chi_Gamma_tau                1  7.0    0.001    0.001   66.193   66.203
 calc_screening_functions             1 10.0   42.125   42.803   42.456   43.148
 compute_3c_and_contract_W           31  8.0    0.000    0.000   43.039   43.043
 fft_wrap_pw1pw2                   2259 10.0    0.023    0.028   37.883   39.400
 dbt_tas_dbm                        486 14.4    0.001    0.001   37.676   37.683
 fft_wrap_pw1pw2_250               1611 11.1    0.613    0.761   35.658   37.319
 fft3d_ps                          2259 12.0    4.171    5.858   35.660   37.137
 dbm_multiply                       486 16.4   29.305   35.850   29.305   35.850
 mp_alltoall_z22v                  2259 14.0   29.939   31.437   29.939   31.437
 pw_poisson_solve                   108  8.0    0.158    0.252   28.146   28.169
 prepare_gapw_den                   108  8.0    0.002    0.002   21.285   21.356
 qs_rho_update_rho_low              108  5.0    0.001    0.002   21.326   21.337
 abc_contract_xsmm                86598 10.6    9.765   19.157    9.765   19.157
 calculate_rho_elec                 108  6.0    0.073    0.109   19.021   19.024
 qs_vxc_create                      108  8.0    0.002    0.002   17.499   17.669
 xc_vxc_pw_create                   107  9.0    0.111    0.164   17.497   17.667
 dbm_redistribute                   912 14.1   13.185   17.007   13.185   17.007
 x_to_yz                            966 12.9    0.491    0.772   15.773   16.222
 yz_to_x                            861 13.2    0.315    0.370   14.902   16.207
 dbt_tas_mm_2                       182 15.2    0.001    0.001   15.506   15.511
 calculate_rho_atom                 324  9.0    1.499   14.863    1.499   14.863
 mp_sum_dv                        27322  8.7   13.989   14.677   13.989   14.677
 xc_pw_derive                       642 11.0    0.003    0.004   13.991   14.250
 G_times_3c                          60  8.0    0.001    0.013   14.076   14.087
 density_rs2pw                      108  7.0    0.003    0.004   12.041   13.373
 convert_to_new_pgrid              1458 14.4    1.359    2.349   10.222   12.219
 ps_wavelet_solve                   108  9.0    2.992    4.135   11.956   12.139
 dbt_tas_mm_3N                       62 15.5    0.000    0.000    9.283   10.968
 mp_waitany                       35964 11.5    8.482   10.456    8.482   10.456
 sum_up_and_integrate               108  8.0    0.001    0.002    9.651   10.269
 integrate_v_rspace                 108  9.0    0.002    0.003    9.616   10.236
 mp_alltoall_d11v                  3354 10.4    8.757    9.932    8.757    9.932
 mp_sum_d                         15630  7.0    8.653    9.884    8.653    9.884
 xc_pw_divergence                   107 10.0    0.002    0.002    9.249    9.450
 potential_pw2rs                    108 10.0    0.008    0.010    8.832    8.863
 transfer_pw2rs                     541 10.6    0.004    0.005    7.593    8.502
 transfer_rs2pw                     541  8.4    0.008    0.013    7.099    8.406
 xc_rho_set_and_dset_create         107 10.0    0.120    0.161    7.860    8.354
 integrate_vhg0_rspace              108  8.0    0.517    0.688    7.124    7.913
 grid_collocate_task_list           108  7.0    6.664    7.803    6.664    7.803
 mp_alltoall_d54                    108 10.0    4.476    7.242    4.476    7.242
 qs_scf_new_mos                     107  5.0    0.001    0.001    7.060    7.142
 mp_alltoall_d45                    109 10.0    6.419    6.879    6.419    6.879
 mp_sum_dm                         5290  7.7    6.252    6.574    6.252    6.574
 calculate_vxc_atom                 108  8.0    0.035    0.311    6.476    6.477
 eigensolver_symm                   107  6.0    0.008    0.010    6.457    6.468
 cp_fm_diag_elpa                    113  7.1    0.000    0.000    6.247    6.257
 cp_fm_diag_elpa_base               113  8.1    6.183    6.218    6.227    6.228
 gaVxcgb_GC                         214  9.0    0.254    6.081    0.254    6.081
 transfer_pw2rs_250                 217 11.0    1.042    1.404    4.257    5.589
 transfer_rs2pw_250                 217 10.0    1.144    1.325    4.301    5.549
 dbt_tas_mm_3T                      122 15.5    0.000    0.000    4.097    5.517
 get_W_MIC                            1  7.0    0.000    0.000    5.465    5.466
 compute_W_MIC                        1  8.0    0.000    0.000    5.465    5.466
 dbt_tas_mm_1N                      120 15.5    0.000    0.000    4.048    5.423
 mp_sum_l                          3244 13.5    2.698    5.330    2.698    5.330
 gspace_mixing                      106  5.0    0.072    0.108    5.239    5.245
 put_rho0_on_grid                   108  9.0    0.079    0.134    5.163    5.233
 dbt_copy                           456 10.1    0.007    0.009    4.145    5.053
 compute_fm_W_MIC_freq_j             30  9.0    0.000    0.000    4.879    4.880
 dbt_tas_create_split              1618 15.2    0.005    0.005    3.694    4.653
 dbt_tas_create_split_rows_or_c    1618 16.2    0.006    0.006    3.689    4.649
 dbt_tas_copy                       486 13.8    1.847    2.222    3.532    4.359
 reshape_mm_compatible              486 14.4    0.010    0.011    4.140    4.319
 change_split                       729 14.9    0.004    0.010    4.108    4.290
 dbm_reserve_blocks                2920 15.9    3.143    4.150    3.143    4.150
 dbt_tas_reserve_blocks_index      2434 15.0    0.004    0.005    3.134    4.141
 dbt_tas_reshape                    638 14.5    0.009    0.010    3.128    3.884
 cp_cfm_heevd                        32 10.8    0.000    0.000    3.838    3.863
 cp_cfm_heevd_base                   32 11.8    3.838    3.863    3.838    3.863
 cp_cfm_power                        30 10.0    0.000    0.002    3.766    3.777
 create_and_init_bs_env_for_gw        1  6.0    0.000    0.000    3.465    3.475
 dbt_reshape                        274 10.9    1.388    1.792    2.703    3.341
 mp_waitall_2                      2978 16.0    2.596    3.251    2.596    3.251
 dbt_tas_estimate_result_nze        243 12.9    0.718    1.045    3.217    3.218
 mp_waitall_1                    101967 12.0    2.025    3.088    2.025    3.088
 broyden_mixing                     106  6.0    2.683    2.766    2.784    2.874
 dbt_tas_distribution_new          1774 14.6    0.936    1.029    2.546    2.820
 get_Sigma_x                          1  7.0    0.000    0.000    2.566    2.567
 compute_Sigma_x                      1  8.0    0.000    0.000    2.566    2.567
 transfer_pw2rs_90                  108 12.0    0.234    0.345    2.351    2.556
 init_scf_run                         1  3.0    0.000    0.000    2.406    2.407
 reshape_mm_small                   486 14.4    0.029    0.031    1.999    2.314
 calculate_rho_atom_coeff           108  6.0    0.307    0.512    2.304    2.313
 dbt_tas_communicate_buffer        1124 16.5    0.012    0.020    1.828    2.306
 dbt_tas_reserve_blocks_templat     972 14.4    0.003    0.023    1.690    2.304
 cp2k_distribution_to_z_slices      108  9.0    0.203    0.249    1.986    2.179
 pw_poisson_rebuild                 108  9.0    0.000    0.000    2.074    2.118
 ps_wavelet_create                    1 10.0    0.000    0.000    2.074    2.118
 RS_z_slice_distribution              1 11.0    0.103    0.112    2.074    2.118
 mp_comm_dup                       1379 17.6    1.102    2.075    1.103    2.076
 fft_wrap_pw1pw2_90                 216 10.5    0.023    0.032    1.525    1.967
 scf_env_initial_rho_setup            1  4.0    0.000    0.000    1.899    1.914
 transfer_rs2pw_90                  108  9.0    0.266    0.357    1.723    1.905
 parallel_gemm_fm_cosma             398  8.1    1.807    1.887    1.807    1.887
 qs_energies_init_hamiltonians        1  3.0    0.000    0.000    1.781    1.781
 build_core_hamiltonian_matrix        1  4.0    0.000    0.000    1.764    1.764
 overlap_condnum                      1  5.0    0.000    0.000    1.748    1.763
 check_sparsity_3c                    1  7.0    0.000    0.000    1.687    1.687
 update_ks_atom                     108  8.0    0.197    0.350    1.505    1.652
 mp_bcast_i                        2211 13.1    1.629    1.632    1.629    1.632
 parallel_gemm_cfm                  281 10.5    0.000    0.000    1.544    1.623
 parallel_gemm_cfm_cosma            281 11.5    1.544    1.623    1.544    1.623
 dbt_reserve_blocks_index           824 12.3    0.002    0.002    1.103    1.564
 mp_isend_dm3                      4764 11.5    0.102    1.520    0.102    1.520
 fm_to_local_tensor                 152  8.0    0.002    0.004    1.449    1.468
 mp_bcast_dm                       3457  9.0    1.430    1.461    1.430    1.461
 dbm_add                            486 14.4    1.107    1.461    1.107    1.461
 dbt_communicate_buffer             274 11.9    0.004    0.005    0.930    1.423
 dbt_tas_replicate                  486 14.4    0.053    0.108    1.159    1.395
 compute_V_xc                         1  7.0    0.000    0.000    1.378    1.379
 integrate_four_center_load         108 10.0    0.000    0.000    0.717    1.359
 hfx_load_balance                     1 11.0    0.000    0.000    0.717    1.359
 hfx_load_balance_range               1 12.0    0.000    0.000    0.703    1.345
 arnoldi_conjugate_gradient           5  6.0    0.017    0.021    1.322    1.322
 grid_integrate_task_list           108 10.0    0.194    1.321    0.194    1.321
 dbt_tas_reshape_buffer_fill        638 15.5    0.929    1.295    0.929    1.295
 calculate_rho0_atom                324  9.0    1.248    1.283    1.248    1.283
 dbt_tas_reshape_buffer_obtain      638 15.5    0.702    0.847    1.057    1.207
 rs_gather_matrices                 108 10.0    0.003    0.011    0.588    1.186
 dbt_tas_reshape_communicate_bu     638 15.5    0.024    0.066    0.788    1.164
 xc_functional_eval                 535 10.9    0.001    0.002    0.566    1.133
 pbe_lda_eval                       535 11.9    0.565    1.131    0.565    1.131
 copy_dbcsr_to_fm                   301  8.1    0.003    0.004    1.002    1.117
 transfer_rs2pw_30                  108  9.0    0.420    0.480    0.893    1.111
 integrate_four_center_getP         108 10.0    0.042    0.059    0.757    1.046
 compute_cfm_W_ikp_freq_j            30 10.0    0.001    0.003    1.031    1.040
 Vh_1c_gg_integrals                 108  8.0    0.046    0.972    0.997    1.003
 rs_grid_zero                       542 11.2    0.751    0.986    0.751    0.986
 dbt_tas_replicate_communicate_     304 15.5    0.002    0.003    0.782    0.984
 dbt_reserve_blocks_index_array     516 12.0    0.001    0.001    0.635    0.975
 dbcsr_sym_matrix_vector_mult      8975  7.0    0.041    0.044    0.837    0.918
 transfer_pw2rs_30                  108 12.0    0.239    0.282    0.778    0.894
 calc_pair_dist_radii                 1 10.0    0.556    0.596    0.804    0.846
 compute_QP_energies                  1  7.0    0.000    0.000    0.837    0.839
 dbcsr_complete_redistribute        667  9.3    0.022    0.029    0.762    0.836
 dbt_crop                           212 11.0    0.386    0.552    0.629    0.813
 mp_sendrecv_dv                   41256 10.0    0.573    0.793    0.573    0.793
 mp_alltoall_i                     1917 14.5    0.734    0.791    0.734    0.791
 pw_derive                          966 11.3    0.683    0.776    0.683    0.776
 pw_copy                           1615 10.6    0.676    0.771    0.676    0.771
 mp_comm_split_direct              1620 17.2    0.747    0.750    0.748    0.751
 dbt_create_matrix                  152  9.0    0.001    0.001    0.682    0.728
 write_matrix                        91  8.0    0.000    0.000    0.568    0.711
 mp_alltoall_i22                    974 10.2    0.563    0.696    0.563    0.696
 mp_max_i                          1050  6.8    0.429    0.693    0.429    0.693
 G_occ_vir                          121  8.0    0.003    0.006    0.662    0.688
 build_3c_integrals_put_dbcsr      1596 10.6    0.268    0.680    0.268    0.680
 to_ikp_and_mo                       62  8.0    0.001    0.003    0.672    0.672
 fm_Gamma_ao_to_cfm_ikp_mo           62  9.0    0.000    0.001    0.625    0.643
 pw_gather_p                       1077 11.8    0.560    0.641    0.560    0.641
 dbcsr_rep_row_to_rep_col_vec      8975  8.0    0.016    0.019    0.280    0.636
 dbt_distribution_new_expert        316 10.5    0.002    0.003    0.627    0.628
 powell_optimize                 551968 11.0    0.579    0.613    0.579    0.613
 alloc_block_3c                     156 10.6    0.004    0.009    0.475    0.599
 mp_cart_create                    3301 14.6    0.522    0.574    0.524    0.576
 mp_isend_dv                      49437 12.3    0.280    0.572    0.280    0.572
 mp_alltoall_z11v                   432 13.5    0.510    0.571    0.510    0.571
 dbcsr_desymmetrize_deep            307  9.1    0.006    0.007    0.446    0.567
 pw_scatter_p                      1182 12.1    0.491    0.555    0.491    0.555
 fm_write                           121  9.0    0.003    0.077    0.318    0.526
 fft_wrap_pw1pw2_30                 216 10.5    0.003    0.004    0.415    0.498
 multiply_fm_W_MIC_time_with_Mi       2  9.0    0.000    0.000    0.494    0.494
 pw_poisson_set                     109  9.0    0.002    0.002    0.449    0.472
 cp_fm_write_unformatted            127  9.9    0.317    0.407    0.326    0.471
 cp_fm_power                          3  8.7    0.001    0.002    0.461    0.465
 dbt_tas_merge                      182 14.2    0.045    0.071    0.399    0.460
 cp_fm_symm                         107  7.0    0.397    0.442    0.397    0.442
 pw_integral_ab_c1d_c1d_gs          108  9.0    0.142    0.158    0.324    0.437
 pw_copy_to_array                  1077 11.8    0.326    0.415    0.326    0.415
 mp_irecv_dv                      47491 12.3    0.046    0.372    0.046    0.372
 setup_time_and_frequency_minim       1  7.0    0.000    0.000    0.341    0.353
 dbt_tas_reshape_alltoall           638 15.5    0.001    0.001    0.340    0.350
 dbcsr_col_vec_to_rep_row          8975  8.0    0.020    0.023    0.239    0.343
 dbt_copy_nocomm                     30 10.0    0.151    0.211    0.260    0.340
 dbt_tas_merge_communicate_buff     182 15.2    0.002    0.003    0.285    0.330
 yz_to_xz                           216 14.0    0.010    0.019    0.265    0.322
 integrate_four_center_dist_KS      108 10.0    0.039    0.049    0.303    0.305
 pw_copy_from_array                1182 12.1    0.183    0.294    0.183    0.294
 mp_cart_sub                        620 10.2    0.262    0.294    0.262    0.294
 cp_cfm_geeig                         2  7.0    0.000    0.000    0.292    0.294
 xz_to_yz                           216 11.0    0.007    0.022    0.267    0.293
 calculate_dm_sparse                107  6.0    0.000    0.001    0.271    0.283
 cp_dbcsr_plus_fm_fm_t              107  7.0    0.001    0.001    0.269    0.281
 fft_wrap_pw1pw2_10                 216 10.5    0.001    0.001    0.263    0.276
 pw_axpy                           1075  9.3    0.239    0.273    0.239    0.273
 dbt_tas_replicate_alltoall         304 15.5    0.000    0.000    0.218    0.268
 copy_fm_to_dbcsr                   366  8.4    0.001    0.001    0.212    0.250
 cp_cfm_cholesky_invert              31 11.0    0.200    0.221    0.200    0.221
 transfer_pw2rs_10                  108 12.0    0.062    0.071    0.202    0.215
 dbcsr_multiply_generic             107  8.0    0.003    0.005    0.191    0.197
 pw_zero                            644 10.3    0.172    0.197    0.172    0.197
 mp_rank_compare                   2259 13.0    0.182    0.194    0.182    0.194
 dbcsr_add_d                      14453  7.3    0.004    0.004    0.038    0.193
 cp_cfm_cholesky_decompose           35 10.7    0.183    0.192    0.183    0.192
 -------------------------------------------------------------------------------

 The number of warnings for this run is : 1
 
 -------------------------------------------------------------------------------
  **** **** ******  **  PROGRAM ENDED AT                 2025-10-27 16:54:58.455
 ***** ** ***  *** **   PROGRAM RAN ON                                    cn0705
 **    ****   ******    PROGRAM RAN BY                                  metdyn02
 ***** **    ** ** **   PROGRAM PROCESS ID                               3439756
  **** **  *******  **  PROGRAM STOPPED IN /scratch/hpc-prf-metdyn/metdyn02_Remi
                                           /04_mol/Benchmark_mol_low_scal/aUKBqs
                                           EOTmq69kFe5R_nOg/5k_set_final_qzvp/EJ
                                           EGOP/TZVP/1e-3/9.0
