SIRIUS 7.7.0, git hash: https://api.github.com/repos/electronic-structure/SIRIUS/git/ref/tags/v7.7.0
 DBCSR| CPU Multiplication driver                                           BLAS (U)
 DBCSR| Multrec recursion limit                                              512 (U)
 DBCSR| Multiplication stack size                                           1000 (D)
 DBCSR| Maximum elements for images                                    UNLIMITED (U)
 DBCSR| Multiplicative factor virtual images                                   1 (U)
 DBCSR| Use multiplication densification                                       T (D)
 DBCSR| Multiplication size stacks                                             3 (U)
 DBCSR| Use memory pool for CPU allocation                                     F (U)
 DBCSR| Number of 3D layers                                               SINGLE (U)
 DBCSR| Use MPI memory allocation                                              F (U)
 DBCSR| Use RMA algorithm                                                      F (U)
 DBCSR| Use Communication thread                                               T (U)
 DBCSR| Communication thread load                                             75 (D)
 DBCSR| MPI: My process id                                                     0
 DBCSR| MPI: Number of processes                                             192
 DBCSR| OMP: Current number of threads                                         4
 DBCSR| OMP: Max number of threads                                             4
 DBCSR| Split modifier for TAS multiplication algorithm                  1.0E+00 (U)


  **** **** ******  **  PROGRAM STARTED AT               2025-10-25 01:48:29.077
 ***** ** ***  *** **   PROGRAM STARTED ON                                cn1302
 **    ****   ******    PROGRAM STARTED BY                              metdyn02
 ***** **    ** ** **   PROGRAM PROCESS ID                               2035257
  **** **  *******  **  PROGRAM STARTED IN /scratch/hpc-prf-metdyn/metdyn02_Remi
                                           /04_mol/Benchmark_mol_low_scal/aUKBqs
                                           EOTmq69kFe5R_nOg/5k_set_final_qzvp/KA
                                           PCUZ/DZVP/1e-5/7.0

 CP2K| version string:                 CP2K version 2025.2 (Development Version)
 CP2K| source code revision number:                                  git:2a4e9c4
 CP2K| cp2kflags: omp libint fftw3 libxc libgrpp elpa parallel scalapack mpi_f08
 CP2K|             cosma xsmm plumed2 spglib sirius libvori libbqb libvdwxc hdf5
 CP2K| is freely available from                            https://www.cp2k.org/
 CP2K| Program compiled at                      Fri Oct 24 04:52:17 PM CEST 2025
 CP2K| Program compiled on                                                login1
 CP2K| Program compiled for                                                local
 CP2K| Data directory path    /opt/software/pc2/EB-SW/software/CP2K/2025.2-foss-
 CP2K| Input file name                                                    GW.inp

 GLOBAL| Force Environment number                                              1
 GLOBAL| Basis set file name            /pc2/groups/hpc-prf-metdyn/metdyn02_Remi
 GLOBAL| Potential file name            /pc2/groups/hpc-prf-metdyn/metdyn02_Remi
 GLOBAL| MM Potential file name                                     MM_POTENTIAL
 GLOBAL| Coordinate file name                                      __STD_INPUT__
 GLOBAL| Method name                                                        CP2K
 GLOBAL| Project name                                                       MoS2
 GLOBAL| Run type                                                         ENERGY
 GLOBAL| FFT library                                                       FFTW3
 GLOBAL| Diagonalization library                                            ELPA
 GLOBAL| Cholesky decomposition library                                ScaLAPACK
 GLOBAL| DGEMM library                                                      BLAS
 GLOBAL| Minimum number of eigenvectors for ELPA usage                        16
 GLOBAL| Orthonormality check for eigenvectors                          DISABLED
 GLOBAL| Matrix multiplication library                                     COSMA
 GLOBAL| All-to-all communication in single precision                          F
 GLOBAL| FFTs using library dependent lengths                                  F
 GLOBAL| Grid backend                                                       AUTO
 GLOBAL| Global print level                                               MEDIUM
 GLOBAL| MPI I/O enabled                                                       T
 GLOBAL| Total number of message passing processes                           192
 GLOBAL| Number of distributed systems (nodes)                                 4
 GLOBAL| Number of threads for this process                                    4
 GLOBAL| This output is from process                                           0
 GLOBAL| OpenMP stack size per thread (OMP_STACKSIZE)                    default
 GLOBAL| CPU model name                          AMD EPYC 9655 96-Core Processor
 GLOBAL| CPUID                                                              1003

 MEMORY| system memory details [Kb]
 MEMORY|                        rank 0           min           max       average
 MEMORY| MemTotal            791039084     791039052     791039104     791039074
 MEMORY| MemFree             744437432     744437432     752902792     749354179
 MEMORY| Buffers                  1352          1352          3168          2712
 MEMORY| Cached                4110860       4110860       8169016       7025563
 MEMORY| Slab                  6264480       1608108       6264480       3054937
 MEMORY| SReclaimable           795540        479900        911916        774771
 MEMORY| MemLikelyFree       749345184     749345184     761078528     757157225


 *** Fundamental physical constants (SI units) ***

 *** Literature: B. J. Mohr and B. N. Taylor,
 ***             CODATA recommended values of the fundamental physical
 ***             constants: 2006, Web Version 5.1
 ***             http://physics.nist.gov/constants

 Speed of light in vacuum [m/s]                             2.99792458000000E+08
 Magnetic constant or permeability of vacuum [N/A**2]       1.25663706143592E-06
 Electric constant or permittivity of vacuum [F/m]          8.85418781762039E-12
 Planck constant (h) [J*s]                                  6.62606896000000E-34
 Planck constant (h-bar) [J*s]                              1.05457162825177E-34
 Elementary charge [C]                                      1.60217648700000E-19
 Electron mass [kg]                                         9.10938215000000E-31
 Electron g factor [ ]                                     -2.00231930436220E+00
 Proton mass [kg]                                           1.67262163700000E-27
 Fine-structure constant                                    7.29735253760000E-03
 Rydberg constant [1/m]                                     1.09737315685270E+07
 Avogadro constant [1/mol]                                  6.02214179000000E+23
 Boltzmann constant [J/K]                                   1.38065040000000E-23
 Atomic mass unit [kg]                                      1.66053878200000E-27
 Bohr radius [m]                                            5.29177208590000E-11

 *** Conversion factors ***

 [u] -> [a.u.]                                              1.82288848426455E+03
 [Angstrom] -> [Bohr] = [a.u.]                              1.88972613288564E+00
 [a.u.] = [Bohr] -> [Angstrom]                              5.29177208590000E-01
 [a.u.] -> [s]                                              2.41888432650478E-17
 [a.u.] -> [fs]                                             2.41888432650478E-02
 [a.u.] -> [J]                                              4.35974393937059E-18
 [a.u.] -> [N]                                              8.23872205491840E-08
 [a.u.] -> [K]                                              3.15774647902944E+05
 [a.u.] -> [kJ/mol]                                         2.62549961709828E+03
 [a.u.] -> [kcal/mol]                                       6.27509468713739E+02
 [a.u.] -> [Pa]                                             2.94210107994716E+13
 [a.u.] -> [bar]                                            2.94210107994716E+08
 [a.u.] -> [atm]                                            2.90362800883016E+08
 [a.u.] -> [eV]                                             2.72113838565563E+01
 [a.u.] -> [Hz]                                             6.57968392072181E+15
 [a.u.] -> [1/cm] (wave numbers)                            2.19474631370540E+05
 [a.u./Bohr**2] -> [1/cm]                                   5.14048714338585E+03
 

 CELL_TOP| Volume [angstrom^3]:                                     27000.000000
 CELL_TOP| Vector a [angstrom    30.000     0.000     0.000   |a| =    30.000000
 CELL_TOP| Vector b [angstrom     0.000    30.000     0.000   |b| =    30.000000
 CELL_TOP| Vector c [angstrom     0.000     0.000    30.000   |c| =    30.000000
 CELL_TOP| Angle (b,c), alpha [degree]:                                90.000000
 CELL_TOP| Angle (a,c), beta  [degree]:                                90.000000
 CELL_TOP| Angle (a,b), gamma [degree]:                                90.000000
 CELL_TOP| Numerically orthorhombic:                                         YES
 CELL_TOP| Periodicity                                                      NONE

 GENERATE|  Preliminary Number of Bonds generated:                             0
 GENERATE|  Achieved consistency in connectivity generation.

 CELL| Volume [angstrom^3]:                                         27000.000000
 CELL| Vector a [angstrom]:      30.000     0.000     0.000   |a| =    30.000000
 CELL| Vector b [angstrom]:       0.000    30.000     0.000   |b| =    30.000000
 CELL| Vector c [angstrom]:       0.000     0.000    30.000   |c| =    30.000000
 CELL| Angle (b,c), alpha [degree]:                                    90.000000
 CELL| Angle (a,c), beta  [degree]:                                    90.000000
 CELL| Angle (a,b), gamma [degree]:                                    90.000000
 CELL| Numerically orthorhombic:                                             YES
 CELL| Periodicity                                                          NONE

 CELL_REF| Volume [angstrom^3]:                                     27000.000000
 CELL_REF| Vector a [angstrom    30.000     0.000     0.000   |a| =    30.000000
 CELL_REF| Vector b [angstrom     0.000    30.000     0.000   |b| =    30.000000
 CELL_REF| Vector c [angstrom     0.000     0.000    30.000   |c| =    30.000000
 CELL_REF| Angle (b,c), alpha [degree]:                                90.000000
 CELL_REF| Angle (a,c), beta  [degree]:                                90.000000
 CELL_REF| Angle (a,b), gamma [degree]:                                90.000000
 CELL_REF| Numerically orthorhombic:                                         YES
 CELL_REF| Periodicity                                                      NONE

 *******************************************************************************
 *******************************************************************************
 **                                                                           **
 **     #####                         ##              ##                      **
 **    ##   ##            ##          ##              ##                      **
 **   ##     ##                       ##            ######                    **
 **   ##     ##  ##   ##  ##   #####  ##  ##   ####   ##    #####    #####    **
 **   ##     ##  ##   ##  ##  ##      ## ##   ##      ##   ##   ##  ##   ##   **
 **   ##  ## ##  ##   ##  ##  ##      ####     ###    ##   ######   ######    **
 **    ##  ###   ##   ##  ##  ##      ## ##      ##   ##   ##       ##        **
 **     #######   #####   ##   #####  ##  ##  ####    ##    #####   ##        **
 **           ##                                                    ##        **
 **                                                                           **
 **                                                ... make the atoms dance   **
 **                                                                           **
 **            Copyright (C) by CP2K developers group (2000-2025)             **
 **                      J. Chem. Phys. 152, 194103 (2020)                    **
 **                                                                           **
 *******************************************************************************

 DFT| Spin restricted Kohn-Sham (RKS) calculation                            RKS
 DFT| Multiplicity                                                             1
 DFT| Number of spin states                                                    1
 DFT| Charge                                                                   0
 DFT| Self-interaction correction (SIC)                                       NO
 DFT| Cutoffs: density                                              1.000000E-10
 DFT|          gradient                                             1.000000E-10
 DFT|          tau                                                  1.000000E-10
 DFT|          cutoff_smoothing_range                               0.000000E+00
 DFT| XC density smoothing                                                  NONE
 DFT| XC derivatives                                                          PW

 FUNCTIONAL| PBE:
 FUNCTIONAL| J.P.Perdew, K.Burke, M.Ernzerhof, Phys. Rev. Letter, vol. 77, n 18,
 FUNCTIONAL|  pp. 3865-3868, (1996)sx=0.750sc=1.000{spin unpolarized}           


 QS| Method:                                                                GAPW
 QS| Density plane wave grid type                        NON-SPHERICAL FULLSPACE
 QS| Number of grid levels:                                                    4
 QS| Density cutoff [a.u.]:                                                250.0
 QS| Multi grid cutoff [a.u.]: 1) grid level                               250.0
 QS|                           2) grid level                                83.3
 QS|                           3) grid level                                27.8
 QS|                           4) grid level                                 9.3
 QS| Grid level progression factor:                                          3.0
 QS| Relative density cutoff [a.u.]:                                        50.0
 QS| Interaction thresholds: eps_pgf_orb:                                1.0E-12
 QS|                         eps_filter_matrix:                          0.0E+00
 QS|                         eps_core_charge:                            1.0E-14
 QS|                         eps_rho_gspace:                             1.0E-12
 QS|                         eps_rho_rspace:                             1.0E-12
 QS|                         eps_gvg_rspace:                             1.0E-06
 QS|                         eps_ppl:                                    1.0E-02
 QS|                         eps_ppnl:                                   1.0E-08
 QS| GAPW|      One center basis from orbital basis primitives
 QS| GAPW|                   eps_fit:                                    1.0E-04
 QS| GAPW|                   eps_iso:                                    1.0E-12
 QS| GAPW|                   eps_svd:                                    1.0E-08
 QS| GAPW|                   eps_cpc:                                    1.0E-12
 QS| GAPW|   atom-r-grid: quadrature:                                     GC_LOG
 QS| GAPW|      atom-s-grid:  max l :                                          6
 QS| GAPW|      max_l_rho0 :                                                   2


 ATOMIC KIND INFORMATION

  1. Atomic kind: S                                     Number of atoms:       2

     Orbital Basis Set                                        aug-DZVP-MOLOPT-ae

       Number of orbital shell sets:                                           3
       Number of orbital shells:                                              12
       Number of primitive Cartesian functions:                               18
       Number of Cartesian basis functions:                                   39
       Number of spherical basis functions:                                   34
       Norm type:                                                              2

       Normalised Cartesian orbitals:

                        Set   Shell   Orbital            Exponent    Coefficient

                          1       1    1s                0.070000       0.160238
                                                         0.132026      -0.106319
                                                         0.461903      -0.064590
                                                         2.043261       0.000000
                                                         6.030247       0.000000
                                                        18.817576       0.000000
                                                        61.243244       0.000000
                                                       262.037180       0.000000

                          1       2    2px               0.070000       0.000000
                                                         0.132026      -0.006041
                                                         0.461903       0.020884
                                                         2.043261      -1.163342
                                                         6.030247      -7.192527
                                                        18.817576     -14.902856
                                                        61.243244     -16.017959
                                                       262.037180     -14.606063
                          1       2    2py               0.070000       0.000000
                                                         0.132026      -0.006041
                                                         0.461903       0.020884
                                                         2.043261      -1.163342
                                                         6.030247      -7.192527
                                                        18.817576     -14.902856
                                                        61.243244     -16.017959
                                                       262.037180     -14.606063
                          1       2    2pz               0.070000       0.000000
                                                         0.132026      -0.006041
                                                         0.461903       0.020884
                                                         2.043261      -1.163342
                                                         6.030247      -7.192527
                                                        18.817576     -14.902856
                                                        61.243244     -16.017959
                                                       262.037180     -14.606063

                          1       3    3px               0.070000       0.000000
                                                         0.132026       0.013372
                                                         0.461903       0.460806
                                                         2.043261       0.527227
                                                         6.030247      -0.800963
                                                        18.817576       1.692650
                                                        61.243244      -2.127051
                                                       262.037180       6.627568
                          1       3    3py               0.070000       0.000000
                                                         0.132026       0.013372
                                                         0.461903       0.460806
                                                         2.043261       0.527227
                                                         6.030247      -0.800963
                                                        18.817576       1.692650
                                                        61.243244      -2.127051
                                                       262.037180       6.627568
                          1       3    3pz               0.070000       0.000000
                                                         0.132026       0.013372
                                                         0.461903       0.460806
                                                         2.043261       0.527227
                                                         6.030247      -0.800963
                                                        18.817576       1.692650
                                                        61.243244      -2.127051
                                                       262.037180       6.627568

                          1       4    4px               0.070000       0.000000
                                                         0.132026       0.122461
                                                         0.461903      -0.074630
                                                         2.043261      -0.266435
                                                         6.030247      -0.600117
                                                        18.817576      -2.837173
                                                        61.243244       0.679283
                                                       262.037180      -9.723876
                          1       4    4py               0.070000       0.000000
                                                         0.132026       0.122461
                                                         0.461903      -0.074630
                                                         2.043261      -0.266435
                                                         6.030247      -0.600117
                                                        18.817576      -2.837173
                                                        61.243244       0.679283
                                                       262.037180      -9.723876
                          1       4    4pz               0.070000       0.000000
                                                         0.132026       0.122461
                                                         0.461903      -0.074630
                                                         2.043261      -0.266435
                                                         6.030247      -0.600117
                                                        18.817576      -2.837173
                                                        61.243244       0.679283
                                                       262.037180      -9.723876

                          1       5    5px               0.070000      -0.010761
                                                         0.132026      -0.065366
                                                         0.461903       0.662552
                                                         2.043261       0.000000
                                                         6.030247       0.000000
                                                        18.817576       0.000000
                                                        61.243244       0.000000
                                                       262.037180       0.000000
                          1       5    5py               0.070000      -0.010761
                                                         0.132026      -0.065366
                                                         0.461903       0.662552
                                                         2.043261       0.000000
                                                         6.030247       0.000000
                                                        18.817576       0.000000
                                                        61.243244       0.000000
                                                       262.037180       0.000000
                          1       5    5pz               0.070000      -0.010761
                                                         0.132026      -0.065366
                                                         0.461903       0.662552
                                                         2.043261       0.000000
                                                         6.030247       0.000000
                                                        18.817576       0.000000
                                                        61.243244       0.000000
                                                       262.037180       0.000000

                          1       6    3dx2              0.070000       0.000000
                                                         0.132026       0.010167
                                                         0.461903       0.321348
                                                         2.043261       1.422467
                                                         6.030247      -0.691425
                                                        18.817576       4.642944
                                                        61.243244     -11.887587
                                                       262.037180      63.210336
                          1       6    3dxy              0.070000       0.000000
                                                         0.132026       0.017609
                                                         0.461903       0.556591
                                                         2.043261       2.463785
                                                         6.030247      -1.197583
                                                        18.817576       8.041814
                                                        61.243244     -20.589904
                                                       262.037180     109.483513
                          1       6    3dxz              0.070000       0.000000
                                                         0.132026       0.017609
                                                         0.461903       0.556591
                                                         2.043261       2.463785
                                                         6.030247      -1.197583
                                                        18.817576       8.041814
                                                        61.243244     -20.589904
                                                       262.037180     109.483513
                          1       6    3dy2              0.070000       0.000000
                                                         0.132026       0.010167
                                                         0.461903       0.321348
                                                         2.043261       1.422467
                                                         6.030247      -0.691425
                                                        18.817576       4.642944
                                                        61.243244     -11.887587
                                                       262.037180      63.210336
                          1       6    3dyz              0.070000       0.000000
                                                         0.132026       0.017609
                                                         0.461903       0.556591
                                                         2.043261       2.463785
                                                         6.030247      -1.197583
                                                        18.817576       8.041814
                                                        61.243244     -20.589904
                                                       262.037180     109.483513
                          1       6    3dz2              0.070000       0.000000
                                                         0.132026       0.010167
                                                         0.461903       0.321348
                                                         2.043261       1.422467
                                                         6.030247      -0.691425
                                                        18.817576       4.642944
                                                        61.243244     -11.887587
                                                       262.037180      63.210336

                          1       7    4dx2              0.070000       0.004993
                                                         0.132026       0.031835
                                                         0.461903       0.041246
                                                         2.043261       0.000000
                                                         6.030247       0.000000
                                                        18.817576       0.000000
                                                        61.243244       0.000000
                                                       262.037180       0.000000
                          1       7    4dxy              0.070000       0.008648
                                                         0.132026       0.055140
                                                         0.461903       0.071440
                                                         2.043261       0.000000
                                                         6.030247       0.000000
                                                        18.817576       0.000000
                                                        61.243244       0.000000
                                                       262.037180       0.000000
                          1       7    4dxz              0.070000       0.008648
                                                         0.132026       0.055140
                                                         0.461903       0.071440
                                                         2.043261       0.000000
                                                         6.030247       0.000000
                                                        18.817576       0.000000
                                                        61.243244       0.000000
                                                       262.037180       0.000000
                          1       7    4dy2              0.070000       0.004993
                                                         0.132026       0.031835
                                                         0.461903       0.041246
                                                         2.043261       0.000000
                                                         6.030247       0.000000
                                                        18.817576       0.000000
                                                        61.243244       0.000000
                                                       262.037180       0.000000
                          1       7    4dyz              0.070000       0.008648
                                                         0.132026       0.055140
                                                         0.461903       0.071440
                                                         2.043261       0.000000
                                                         6.030247       0.000000
                                                        18.817576       0.000000
                                                        61.243244       0.000000
                                                       262.037180       0.000000
                          1       7    4dz2              0.070000       0.004993
                                                         0.132026       0.031835
                                                         0.461903       0.041246
                                                         2.043261       0.000000
                                                         6.030247       0.000000
                                                        18.817576       0.000000
                                                        61.243244       0.000000
                                                       262.037180       0.000000

                          1       8    4fx3              0.070000       0.001179
                                                         0.132026       0.004915
                                                         0.461903       0.162520
                                                         2.043261       0.000000
                                                         6.030247       0.000000
                                                        18.817576       0.000000
                                                        61.243244       0.000000
                                                       262.037180       0.000000
                          1       8    4fx2y             0.070000       0.002636
                                                         0.132026       0.010991
                                                         0.461903       0.363406
                                                         2.043261       0.000000
                                                         6.030247       0.000000
                                                        18.817576       0.000000
                                                        61.243244       0.000000
                                                       262.037180       0.000000
                          1       8    4fx2z             0.070000       0.002636
                                                         0.132026       0.010991
                                                         0.461903       0.363406
                                                         2.043261       0.000000
                                                         6.030247       0.000000
                                                        18.817576       0.000000
                                                        61.243244       0.000000
                                                       262.037180       0.000000
                          1       8    4fxy2             0.070000       0.002636
                                                         0.132026       0.010991
                                                         0.461903       0.363406
                                                         2.043261       0.000000
                                                         6.030247       0.000000
                                                        18.817576       0.000000
                                                        61.243244       0.000000
                                                       262.037180       0.000000
                          1       8    4fxyz             0.070000       0.004567
                                                         0.132026       0.019037
                                                         0.461903       0.629438
                                                         2.043261       0.000000
                                                         6.030247       0.000000
                                                        18.817576       0.000000
                                                        61.243244       0.000000
                                                       262.037180       0.000000
                          1       8    4fxz2             0.070000       0.002636
                                                         0.132026       0.010991
                                                         0.461903       0.363406
                                                         2.043261       0.000000
                                                         6.030247       0.000000
                                                        18.817576       0.000000
                                                        61.243244       0.000000
                                                       262.037180       0.000000
                          1       8    4fy3              0.070000       0.001179
                                                         0.132026       0.004915
                                                         0.461903       0.162520
                                                         2.043261       0.000000
                                                         6.030247       0.000000
                                                        18.817576       0.000000
                                                        61.243244       0.000000
                                                       262.037180       0.000000
                          1       8    4fy2z             0.070000       0.002636
                                                         0.132026       0.010991
                                                         0.461903       0.363406
                                                         2.043261       0.000000
                                                         6.030247       0.000000
                                                        18.817576       0.000000
                                                        61.243244       0.000000
                                                       262.037180       0.000000
                          1       8    4fyz2             0.070000       0.002636
                                                         0.132026       0.010991
                                                         0.461903       0.363406
                                                         2.043261       0.000000
                                                         6.030247       0.000000
                                                        18.817576       0.000000
                                                        61.243244       0.000000
                                                       262.037180       0.000000
                          1       8    4fz3              0.070000       0.001179
                                                         0.132026       0.004915
                                                         0.461903       0.162520
                                                         2.043261       0.000000
                                                         6.030247       0.000000
                                                        18.817576       0.000000
                                                        61.243244       0.000000
                                                       262.037180       0.000000

                          2       1    1s               45.482850      -1.175639
                                                         4.876333       1.431452
                                                         1.864066       0.572778
                                                         0.430250      -0.034078
                                                         0.152872       0.004775

                          2       2    2s               45.482850      -0.314552
                                                         4.876333       0.236776
                                                         1.864066      -0.009167
                                                         0.430250       0.282804
                                                         0.152872       0.044200

                          2       3    3s               45.482850       0.143312
                                                         4.876333      -0.094249
                                                         1.864066      -0.118759
                                                         0.430250      -0.172982
                                                         0.152872       0.236834

                          3       1    1s             9184.968607      -3.488008
                                                      1381.514008      -6.811623
                                                       313.892819      -9.517673
                                                        87.514579     -10.059465
                                                        25.931396      -3.470689

     RI Auxiliary Basis Set             RI_aug-DZVP-MOLOPT-ae_N_RI_112_s_p_d_f_g

       Number of orbital shell sets:                                          26
       Number of orbital shells:                                              26
       Number of primitive Cartesian functions:                               26
       Number of Cartesian basis functions:                                  150
       Number of spherical basis functions:                                  112
       Norm type:                                                              2

       Normalised Cartesian orbitals:

                        Set   Shell   Orbital            Exponent    Coefficient

                          1       1   19fx3              0.196223       0.037726
                          1       1   19fx2y             0.196223       0.084358
                          1       1   19fx2z             0.196223       0.084358
                          1       1   19fxy2             0.196223       0.084358
                          1       1   19fxyz             0.196223       0.146112
                          1       1   19fxz2             0.196223       0.084358
                          1       1   19fy3              0.196223       0.037726
                          1       1   19fy2z             0.196223       0.084358
                          1       1   19fyz2             0.196223       0.084358
                          1       1   19fz3              0.196223       0.037726

                          2       1    1s                0.274731       0.270452

                          3       1    8px               0.297410       0.313065
                          3       1    8py               0.297410       0.313065
                          3       1    8pz               0.297410       0.313065

                          4       1   14dx2              0.342012       0.251757
                          4       1   14dxy              0.342012       0.436056
                          4       1   14dxz              0.342012       0.436056
                          4       1   14dy2              0.342012       0.251757
                          4       1   14dyz              0.342012       0.436056
                          4       1   14dz2              0.342012       0.251757

                          5       1   24gx4              0.391475       0.084405
                          5       1   24gx3y             0.391475       0.223316
                          5       1   24gx3z             0.391475       0.223316
                          5       1   24gx2y2            0.391475       0.288299
                          5       1   24gx2yz            0.391475       0.499349
                          5       1   24gx2z2            0.391475       0.288299
                          5       1   24gxy3             0.391475       0.223316
                          5       1   24gxy2z            0.391475       0.499349
                          5       1   24gxyz2            0.391475       0.499349
                          5       1   24gxz3             0.391475       0.223316
                          5       1   24gy4              0.391475       0.084405
                          5       1   24gy3z             0.391475       0.223316
                          5       1   24gy2z2            0.391475       0.288299
                          5       1   24gyz3             0.391475       0.223316
                          5       1   24gz4              0.391475       0.084405

                          6       1    2s                0.450192       0.391705

                          7       1   20fx3              0.475207       0.276021
                          7       1   20fx2y             0.475207       0.617201
                          7       1   20fx2z             0.475207       0.617201
                          7       1   20fxy2             0.475207       0.617201
                          7       1   20fxyz             0.475207       1.069024
                          7       1   20fxz2             0.475207       0.617201
                          7       1   20fy3              0.475207       0.276021
                          7       1   20fy2z             0.475207       0.617201
                          7       1   20fyz2             0.475207       0.617201
                          7       1   20fz3              0.475207       0.276021

                          8       1    9px               0.556661       0.685375
                          8       1    9py               0.556661       0.685375
                          8       1    9pz               0.556661       0.685375

                          9       1   25gx4              0.798707       0.599792
                          9       1   25gx3y             0.798707       1.586901
                          9       1   25gx3z             0.798707       1.586901
                          9       1   25gx2y2            0.798707       2.048680
                          9       1   25gx2yz            0.798707       3.548418
                          9       1   25gx2z2            0.798707       2.048680
                          9       1   25gxy3             0.798707       1.586901
                          9       1   25gxy2z            0.798707       3.548418
                          9       1   25gxyz2            0.798707       3.548418
                          9       1   25gxz3             0.798707       1.586901
                          9       1   25gy4              0.798707       0.599792
                          9       1   25gy3z             0.798707       1.586901
                          9       1   25gy2z2            0.798707       2.048680
                          9       1   25gyz3             0.798707       1.586901
                          9       1   25gz4              0.798707       0.599792

                         10       1   15dx2              0.868904       1.287093
                         10       1   15dxy              0.868904       2.229311
                         10       1   15dxz              0.868904       2.229311
                         10       1   15dy2              0.868904       1.287093
                         10       1   15dyz              0.868904       2.229311
                         10       1   15dz2              0.868904       1.287093

                         11       1   21fx3              1.110564       1.863920
                         11       1   21fx2y             1.110564       4.167853
                         11       1   21fx2z             1.110564       4.167853
                         11       1   21fxy2             1.110564       4.167853
                         11       1   21fxyz             1.110564       7.218933
                         11       1   21fxz2             1.110564       4.167853
                         11       1   21fy3              1.110564       1.863920
                         11       1   21fy2z             1.110564       4.167853
                         11       1   21fyz2             1.110564       4.167853
                         11       1   21fz3              1.110564       1.863920

                         12       1    3s                1.576636       1.002787

                         13       1   10px               1.661104       2.688042
                         13       1   10py               1.661104       2.688042
                         13       1   10pz               1.661104       2.688042

                         14       1   26gx4              1.699549       4.784683
                         14       1   26gx3y             1.699549      12.659081
                         14       1   26gx3z             1.699549      12.659081
                         14       1   26gx2y2            1.699549      16.342804
                         14       1   26gx2yz            1.699549      28.306566
                         14       1   26gx2z2            1.699549      16.342804
                         14       1   26gxy3             1.699549      12.659081
                         14       1   26gxy2z            1.699549      28.306566
                         14       1   26gxyz2            1.699549      28.306566
                         14       1   26gxz3             1.699549      12.659081
                         14       1   26gy4              1.699549       4.784683
                         14       1   26gy3z             1.699549      12.659081
                         14       1   26gy2z2            1.699549      16.342804
                         14       1   26gyz3             1.699549      12.659081
                         14       1   26gz4              1.699549       4.784683

                         15       1   16dx2              1.790525       4.561684
                         15       1   16dxy              1.790525       7.901069
                         15       1   16dxz              1.790525       7.901069
                         15       1   16dy2              1.790525       4.561684
                         15       1   16dyz              1.790525       7.901069
                         15       1   16dz2              1.790525       4.561684

                         16       1   22fx3              2.481450      11.377374
                         16       1   22fx2y             2.481450      25.440582
                         16       1   22fx2z             2.481450      25.440582
                         16       1   22fxy2             2.481450      25.440582
                         16       1   22fxyz             2.481450      44.064381
                         16       1   22fxz2             2.481450      25.440582
                         16       1   22fy3              2.481450      11.377374
                         16       1   22fy2z             2.481450      25.440582
                         16       1   22fyz2             2.481450      25.440582
                         16       1   22fz3              2.481450      11.377374

                         17       1   23fx3              5.859468      78.638518
                         17       1   23fx2y             5.859468     175.841073
                         17       1   23fx2z             5.859468     175.841073
                         17       1   23fxy2             5.859468     175.841073
                         17       1   23fxyz             5.859468     304.565672
                         17       1   23fxz2             5.859468     175.841073
                         17       1   23fy3              5.859468      78.638518
                         17       1   23fy2z             5.859468     175.841073
                         17       1   23fyz2             5.859468     175.841073
                         17       1   23fz3              5.859468      78.638518

                         18       1    4s                6.121014       2.773496

                         19       1   11px               6.368076      14.419507
                         19       1   11py               6.368076      14.419507
                         19       1   11pz               6.368076      14.419507

                         20       1   17dx2              8.086646      63.826974
                         20       1   17dxy              8.086646     110.551561
                         20       1   17dxz              8.086646     110.551561
                         20       1   17dy2              8.086646      63.826974
                         20       1   17dyz              8.086646     110.551561
                         20       1   17dz2              8.086646      63.826974

                         21       1   12px              21.758493      66.984774
                         21       1   12py              21.758493      66.984774
                         21       1   12pz              21.758493      66.984774

                         22       1    5s               24.978089       7.963051

                         23       1   18dx2             31.343162     683.375459
                         23       1   18dxy             31.343162    1183.641015
                         23       1   18dxz             31.343162    1183.641015
                         23       1   18dy2             31.343162     683.375459
                         23       1   18dyz             31.343162    1183.641015
                         23       1   18dz2             31.343162     683.375459

                         24       1   13px              70.358059     290.457368
                         24       1   13py              70.358059     290.457368
                         24       1   13pz              70.358059     290.457368

                         25       1    6s               95.478130      21.768977

                         26       1    7s              351.262033      57.827378

       Atomic covalent radius [Angstrom]:                                  1.020

       Atomic van der Waals radius [Angstrom]:                             1.800

     The atoms of this atomic kind are PAW atoms (GAPW):
       Hard Gaussian function radius:                                      1.512
       Rho0 radius:                                                        1.512
       Maximum GTO radius used for PAW projector construction:            24.566

     GAPW Soft Basis Set                                 aug-DZVP-MOLOPT-ae_soft

       Number of orbital shell sets:                                           3
       Number of orbital shells:                                              12
       Number of primitive Cartesian functions:                                7
       Number of Cartesian basis functions:                                   39
       Number of spherical basis functions:                                   34
       Norm type:                                                              2

       Normalised Cartesian orbitals:

                        Set   Shell   Orbital            Exponent    Coefficient

                          1       1    1s                0.070000       0.160238
                                                         0.132026      -0.106319
                                                         0.461903      -0.064590
                                                         2.043261       0.000000

                          1       2    2px               0.070000       0.000000
                                                         0.132026      -0.006041
                                                         0.461903       0.020884
                                                         2.043261      -1.163342
                          1       2    2py               0.070000       0.000000
                                                         0.132026      -0.006041
                                                         0.461903       0.020884
                                                         2.043261      -1.163342
                          1       2    2pz               0.070000       0.000000
                                                         0.132026      -0.006041
                                                         0.461903       0.020884
                                                         2.043261      -1.163342

                          1       3    3px               0.070000       0.000000
                                                         0.132026       0.013372
                                                         0.461903       0.460806
                                                         2.043261       0.527227
                          1       3    3py               0.070000       0.000000
                                                         0.132026       0.013372
                                                         0.461903       0.460806
                                                         2.043261       0.527227
                          1       3    3pz               0.070000       0.000000
                                                         0.132026       0.013372
                                                         0.461903       0.460806
                                                         2.043261       0.527227

                          1       4    4px               0.070000       0.000000
                                                         0.132026       0.122461
                                                         0.461903      -0.074630
                                                         2.043261      -0.266435
                          1       4    4py               0.070000       0.000000
                                                         0.132026       0.122461
                                                         0.461903      -0.074630
                                                         2.043261      -0.266435
                          1       4    4pz               0.070000       0.000000
                                                         0.132026       0.122461
                                                         0.461903      -0.074630
                                                         2.043261      -0.266435

                          1       5    5px               0.070000      -0.010761
                                                         0.132026      -0.065366
                                                         0.461903       0.662552
                                                         2.043261       0.000000
                          1       5    5py               0.070000      -0.010761
                                                         0.132026      -0.065366
                                                         0.461903       0.662552
                                                         2.043261       0.000000
                          1       5    5pz               0.070000      -0.010761
                                                         0.132026      -0.065366
                                                         0.461903       0.662552
                                                         2.043261       0.000000

                          1       6    3dx2              0.070000       0.000000
                                                         0.132026       0.010167
                                                         0.461903       0.321348
                                                         2.043261       1.422467
                          1       6    3dxy              0.070000       0.000000
                                                         0.132026       0.017609
                                                         0.461903       0.556591
                                                         2.043261       2.463785
                          1       6    3dxz              0.070000       0.000000
                                                         0.132026       0.017609
                                                         0.461903       0.556591
                                                         2.043261       2.463785
                          1       6    3dy2              0.070000       0.000000
                                                         0.132026       0.010167
                                                         0.461903       0.321348
                                                         2.043261       1.422467
                          1       6    3dyz              0.070000       0.000000
                                                         0.132026       0.017609
                                                         0.461903       0.556591
                                                         2.043261       2.463785
                          1       6    3dz2              0.070000       0.000000
                                                         0.132026       0.010167
                                                         0.461903       0.321348
                                                         2.043261       1.422467

                          1       7    4dx2              0.070000       0.004993
                                                         0.132026       0.031835
                                                         0.461903       0.041246
                                                         2.043261       0.000000
                          1       7    4dxy              0.070000       0.008648
                                                         0.132026       0.055140
                                                         0.461903       0.071440
                                                         2.043261       0.000000
                          1       7    4dxz              0.070000       0.008648
                                                         0.132026       0.055140
                                                         0.461903       0.071440
                                                         2.043261       0.000000
                          1       7    4dy2              0.070000       0.004993
                                                         0.132026       0.031835
                                                         0.461903       0.041246
                                                         2.043261       0.000000
                          1       7    4dyz              0.070000       0.008648
                                                         0.132026       0.055140
                                                         0.461903       0.071440
                                                         2.043261       0.000000
                          1       7    4dz2              0.070000       0.004993
                                                         0.132026       0.031835
                                                         0.461903       0.041246
                                                         2.043261       0.000000

                          1       8    4fx3              0.070000       0.001179
                                                         0.132026       0.004915
                                                         0.461903       0.162520
                                                         2.043261       0.000000
                          1       8    4fx2y             0.070000       0.002636
                                                         0.132026       0.010991
                                                         0.461903       0.363406
                                                         2.043261       0.000000
                          1       8    4fx2z             0.070000       0.002636
                                                         0.132026       0.010991
                                                         0.461903       0.363406
                                                         2.043261       0.000000
                          1       8    4fxy2             0.070000       0.002636
                                                         0.132026       0.010991
                                                         0.461903       0.363406
                                                         2.043261       0.000000
                          1       8    4fxyz             0.070000       0.004567
                                                         0.132026       0.019037
                                                         0.461903       0.629438
                                                         2.043261       0.000000
                          1       8    4fxz2             0.070000       0.002636
                                                         0.132026       0.010991
                                                         0.461903       0.363406
                                                         2.043261       0.000000
                          1       8    4fy3              0.070000       0.001179
                                                         0.132026       0.004915
                                                         0.461903       0.162520
                                                         2.043261       0.000000
                          1       8    4fy2z             0.070000       0.002636
                                                         0.132026       0.010991
                                                         0.461903       0.363406
                                                         2.043261       0.000000
                          1       8    4fyz2             0.070000       0.002636
                                                         0.132026       0.010991
                                                         0.461903       0.363406
                                                         2.043261       0.000000
                          1       8    4fz3              0.070000       0.001179
                                                         0.132026       0.004915
                                                         0.461903       0.162520
                                                         2.043261       0.000000

                          2       1    1s                1.864066       0.572778
                                                         0.430250      -0.034078
                                                         0.152872       0.004775

                          2       2    2s                1.864066      -0.009167
                                                         0.430250       0.282804
                                                         0.152872       0.044200

                          2       3    3s                1.864066      -0.118759
                                                         0.430250      -0.172982
                                                         0.152872       0.236834

                          3       1    1s         

     AE Potential information for                                            ALL

       Description:                                       All-electron potential
                                          Krack, Parrinello, PCCP 2, 2105 (2000)

       Gaussian exponent of the core charge distribution:               2.834467
       Electronic configuration (s p d ...):                           6  10   0

  2. Atomic kind: C                                     Number of atoms:       6

     Orbital Basis Set                                        aug-DZVP-MOLOPT-ae

       Number of orbital shell sets:                                           2
       Number of orbital shells:                                              10
       Number of primitive Cartesian functions:                               13
       Number of Cartesian basis functions:                                   35
       Number of spherical basis functions:                                   30
       Norm type:                                                              2

       Normalised Cartesian orbitals:

                        Set   Shell   Orbital            Exponent    Coefficient

                          1       1    2px               0.050000       0.000000
                                                         0.096935       0.005344
                                                         0.300899       0.144116
                                                         0.937529       0.673511
                                                         4.145546       1.425967
                          1       1    2py               0.050000       0.000000
                                                         0.096935       0.005344
                                                         0.300899       0.144116
                                                         0.937529       0.673511
                                                         4.145546       1.425967
                          1       1    2pz               0.050000       0.000000
                                                         0.096935       0.005344
                                                         0.300899       0.144116
                                                         0.937529       0.673511
                                                         4.145546       1.425967

                          1       2    3px               0.050000       0.000000
                                                         0.096935       0.066903
                                                         0.300899       0.082631
                                                         0.937529      -0.414500
                                                         4.145546      -0.833488
                          1       2    3py               0.050000       0.000000
                                                         0.096935       0.066903
                                                         0.300899       0.082631
                                                         0.937529      -0.414500
                                                         4.145546      -0.833488
                          1       2    3pz               0.050000       0.000000
                                                         0.096935       0.066903
                                                         0.300899       0.082631
                                                         0.937529      -0.414500
                                                         4.145546      -0.833488

                          1       3    4px               0.050000       0.052477
                                                         0.096935      -0.149600
                                                         0.300899      -0.031452
                                                         0.937529       0.106528
                                                         4.145546       0.000000
                          1       3    4py               0.050000       0.052477
                                                         0.096935      -0.149600
                                                         0.300899      -0.031452
                                                         0.937529       0.106528
                                                         4.145546       0.000000
                          1       3    4pz               0.050000       0.052477
                                                         0.096935      -0.149600
                                                         0.300899      -0.031452
                                                         0.937529       0.106528
                                                         4.145546       0.000000

                          1       4    3dx2              0.050000       0.000000
                                                         0.096935       0.001258
                                                         0.300899       0.105504
                                                         0.937529       0.830801
                                                         4.145546       0.718979
                          1       4    3dxy              0.050000       0.000000
                                                         0.096935       0.002179
                                                         0.300899       0.182739
                                                         0.937529       1.438990
                                                         4.145546       1.245309
                          1       4    3dxz              0.050000       0.000000
                                                         0.096935       0.002179
                                                         0.300899       0.182739
                                                         0.937529       1.438990
                                                         4.145546       1.245309
                          1       4    3dy2              0.050000       0.000000
                                                         0.096935       0.001258
                                                         0.300899       0.105504
                                                         0.937529       0.830801
                                                         4.145546       0.718979
                          1       4    3dyz              0.050000       0.000000
                                                         0.096935       0.002179
                                                         0.300899       0.182739
                                                         0.937529       1.438990
                                                         4.145546       1.245309
                          1       4    3dz2              0.050000       0.000000
                                                         0.096935       0.001258
                                                         0.300899       0.105504
                                                         0.937529       0.830801
                                                         4.145546       0.718979

                          1       5    4dx2              0.050000      -0.011665
                                                         0.096935       0.057456
                                                         0.300899      -0.258169
                                                         0.937529       0.000000
                                                         4.145546       0.000000
                          1       5    4dxy              0.050000      -0.020204
                                                         0.096935       0.099516
                                                         0.300899      -0.447162
                                                         0.937529       0.000000
                                                         4.145546       0.000000
                          1       5    4dxz              0.050000      -0.020204
                                                         0.096935       0.099516
                                                         0.300899      -0.447162
                                                         0.937529       0.000000
                                                         4.145546       0.000000
                          1       5    4dy2              0.050000      -0.011665
                                                         0.096935       0.057456
                                                         0.300899      -0.258169
                                                         0.937529       0.000000
                                                         4.145546       0.000000
                          1       5    4dyz              0.050000      -0.020204
                                                         0.096935       0.099516
                                                         0.300899      -0.447162
                                                         0.937529       0.000000
                                                         4.145546       0.000000
                          1       5    4dz2              0.050000      -0.011665
                                                         0.096935       0.057456
                                                         0.300899      -0.258169
                                                         0.937529       0.000000
                                                         4.145546       0.000000

                          1       6    4fx3              0.050000      -0.000180
                                                         0.096935       0.008160
                                                         0.300899       0.004002
                                                         0.937529       0.000000
                                                         4.145546       0.000000
                          1       6    4fx2y             0.050000      -0.000402
                                                         0.096935       0.018246
                                                         0.300899       0.008949
                                                         0.937529       0.000000
                                                         4.145546       0.000000
                          1       6    4fx2z             0.050000      -0.000402
                                                         0.096935       0.018246
                                                         0.300899       0.008949
                                                         0.937529       0.000000
                                                         4.145546       0.000000
                          1       6    4fxy2             0.050000      -0.000402
                                                         0.096935       0.018246
                                                         0.300899       0.008949
                                                         0.937529       0.000000
                                                         4.145546       0.000000
                          1       6    4fxyz             0.050000      -0.000696
                                                         0.096935       0.031603
                                                         0.300899       0.015500
                                                         0.937529       0.000000
                                                         4.145546       0.000000
                          1       6    4fxz2             0.050000      -0.000402
                                                         0.096935       0.018246
                                                         0.300899       0.008949
                                                         0.937529       0.000000
                                                         4.145546       0.000000
                          1       6    4fy3              0.050000      -0.000180
                                                         0.096935       0.008160
                                                         0.300899       0.004002
                                                         0.937529       0.000000
                                                         4.145546       0.000000
                          1       6    4fy2z             0.050000      -0.000402
                                                         0.096935       0.018246
                                                         0.300899       0.008949
                                                         0.937529       0.000000
                                                         4.145546       0.000000
                          1       6    4fyz2             0.050000      -0.000402
                                                         0.096935       0.018246
                                                         0.300899       0.008949
                                                         0.937529       0.000000
                                                         4.145546       0.000000
                          1       6    4fz3              0.050000      -0.000180
                                                         0.096935       0.008160
                                                         0.300899       0.004002
                                                         0.937529       0.000000
                                                         4.145546       0.000000

                          2       1    1s                0.060000       0.000000
                                                         0.161278       0.024253
                                                         0.523772      -0.029268
                                                         3.176528       0.666384
                                                        10.501907       2.110671
                                                        40.805234       2.242010
                                                       186.270922       1.801845
                                                      1238.394264      -0.490536

                          2       2    2s                0.060000       0.000000
                                                         0.161278       0.080328
                                                         0.523772       0.279468
                                                         3.176528      -0.079506
                                                        10.501907      -0.033488
                                                        40.805234       0.350132
                                                       186.270922      -0.108171
                                                      1238.394264       0.147138

                          2       3    3s                0.060000       0.000000
                                                         0.161278       0.225687
                                                         0.523772      -0.382710
                                                         3.176528      -0.308205
                                                        10.501907      -0.974990
                                                        40.805234      -2.174132
                                                       186.270922       1.755878
                                                      1238.394264     -12.484315

                          2       4    4s                0.060000      -0.055653
                                                         0.161278      -0.019607
                                                         0.523772       0.500289
                                                         3.176528       0.067234
                                                        10.501907       0.000000
                                                        40.805234       0.000000
                                                       186.270922       0.000000
                                                      1238.394264       0.000000

     RI Auxiliary Basis Set             RI_aug-DZVP-MOLOPT-ae_N_RI_067_s_p_d_f_g

       Number of orbital shell sets:                                          19
       Number of orbital shells:                                              19
       Number of primitive Cartesian functions:                               19
       Number of Cartesian basis functions:                                   85
       Number of spherical basis functions:                                   67
       Norm type:                                                              2

       Normalised Cartesian orbitals:

                        Set   Shell   Orbital            Exponent    Coefficient

                          1       1    1s                0.139231       0.162447

                          2       1    8px               0.184200       0.172009
                          2       1    8py               0.184200       0.172009
                          2       1    8pz               0.184200       0.172009

                          3       1   13dx2              0.224561       0.120572
                          3       1   13dxy              0.224561       0.208836
                          3       1   13dxz              0.224561       0.208836
                          3       1   13dy2              0.224561       0.120572
                          3       1   13dyz              0.224561       0.208836
                          3       1   13dz2              0.224561       0.120572

                          4       1   19gx4              0.250330       0.024680
                          4       1   19gx3y             0.250330       0.065297
                          4       1   19gx3z             0.250330       0.065297
                          4       1   19gx2y2            0.250330       0.084298
                          4       1   19gx2yz            0.250330       0.146009
                          4       1   19gx2z2            0.250330       0.084298
                          4       1   19gxy3             0.250330       0.065297
                          4       1   19gxy2z            0.250330       0.146009
                          4       1   19gxyz2            0.250330       0.146009
                          4       1   19gxz3             0.250330       0.065297
                          4       1   19gy4              0.250330       0.024680
                          4       1   19gy3z             0.250330       0.065297
                          4       1   19gy2z2            0.250330       0.084298
                          4       1   19gyz3             0.250330       0.065297
                          4       1   19gz4              0.250330       0.024680

                          5       1   16fx3              0.254992       0.068021
                          5       1   16fx2y             0.254992       0.152099
                          5       1   16fx2z             0.254992       0.152099
                          5       1   16fxy2             0.254992       0.152099
                          5       1   16fxyz             0.254992       0.263443
                          5       1   16fxz2             0.254992       0.152099
                          5       1   16fy3              0.254992       0.068021
                          5       1   16fy2z             0.254992       0.152099
                          5       1   16fyz2             0.254992       0.152099
                          5       1   16fz3              0.254992       0.068021

                          6       1    2s                0.359475       0.330873

                          7       1    9px               0.543591       0.665319
                          7       1    9py               0.543591       0.665319
                          7       1    9pz               0.543591       0.665319

                          8       1   14dx2              0.686964       0.853187
                          8       1   14dxy              0.686964       1.477763
                          8       1   14dxz              0.686964       1.477763
                          8       1   14dy2              0.686964       0.853187
                          8       1   14dyz              0.686964       1.477763
                          8       1   14dz2              0.686964       0.853187

                          9       1   17fx3              0.836935       0.986304
                          9       1   17fx2y             0.836935       2.205443
                          9       1   17fx2z             0.836935       2.205443
                          9       1   17fxy2             0.836935       2.205443
                          9       1   17fxyz             0.836935       3.819939
                          9       1   17fxz2             0.836935       2.205443
                          9       1   17fy3              0.836935       0.986304
                          9       1   17fy2z             0.836935       2.205443
                          9       1   17fyz2             0.836935       2.205443
                          9       1   17fz3              0.836935       0.986304

                         10       1    3s                1.049085       0.738785

                         11       1   10px               1.444523       2.257332
                         11       1   10py               1.444523       2.257332
                         11       1   10pz               1.444523       2.257332

                         12       1   15dx2              1.987695       5.476732
                         12       1   15dxy              1.987695       9.485978
                         12       1   15dxz              1.987695       9.485978
                         12       1   15dy2              1.987695       5.476732
                         12       1   15dyz              1.987695       9.485978
                         12       1   15dz2              1.987695       5.476732

                         13       1   18fx3              2.590590      12.534341
                         13       1   18fx2y             2.590590      28.027639
                         13       1   18fx2z             2.590590      28.027639
                         13       1   18fxy2             2.590590      28.027639
                         13       1   18fxyz             2.590590      48.545294
                         13       1   18fxz2             2.590590      28.027639
                         13       1   18fy3              2.590590      12.534341
                         13       1   18fy2z             2.590590      28.027639
                         13       1   18fyz2             2.590590      28.027639
                         13       1   18fz3              2.590590      12.534341

                         14       1    4s                3.115906       1.671469

                         15       1   11px               5.433474      11.824617
                         15       1   11py               5.433474      11.824617
                         15       1   11pz               5.433474      11.824617

                         16       1    5s                9.296846       3.794564

                         17       1   12px              16.947836      49.015440
                         17       1   12py              16.947836      49.015440
                         17       1   12pz              16.947836      49.015440

                         18       1    6s               27.681844       8.601147

                         19       1    7s               82.364615      19.485681

       Atomic covalent radius [Angstrom]:                                  0.770

       Atomic van der Waals radius [Angstrom]:                             1.700

     The atoms of this atomic kind are PAW atoms (GAPW):
       Hard Gaussian function radius:                                      1.512
       Rho0 radius:                                                        1.512
       Maximum GTO radius used for PAW projector construction:            24.566

     GAPW Soft Basis Set                                 aug-DZVP-MOLOPT-ae_soft

       Number of orbital shell sets:                                           2
       Number of orbital shells:                                              10
       Number of primitive Cartesian functions:                                9
       Number of Cartesian basis functions:                                   35
       Number of spherical basis functions:                                   30
       Norm type:                                                              2

       Normalised Cartesian orbitals:

                        Set   Shell   Orbital            Exponent    Coefficient

                          1       1    2px               0.050000       0.000000
                                                         0.096935       0.005344
                                                         0.300899       0.144116
                                                         0.937529       0.673511
                                                         4.145546       1.425967
                          1       1    2py               0.050000       0.000000
                                                         0.096935       0.005344
                                                         0.300899       0.144116
                                                         0.937529       0.673511
                                                         4.145546       1.425967
                          1       1    2pz               0.050000       0.000000
                                                         0.096935       0.005344
                                                         0.300899       0.144116
                                                         0.937529       0.673511
                                                         4.145546       1.425967

                          1       2    3px               0.050000       0.000000
                                                         0.096935       0.066903
                                                         0.300899       0.082631
                                                         0.937529      -0.414500
                                                         4.145546      -0.833488
                          1       2    3py               0.050000       0.000000
                                                         0.096935       0.066903
                                                         0.300899       0.082631
                                                         0.937529      -0.414500
                                                         4.145546      -0.833488
                          1       2    3pz               0.050000       0.000000
                                                         0.096935       0.066903
                                                         0.300899       0.082631
                                                         0.937529      -0.414500
                                                         4.145546      -0.833488

                          1       3    4px               0.050000       0.052477
                                                         0.096935      -0.149600
                                                         0.300899      -0.031452
                                                         0.937529       0.106528
                                                         4.145546       0.000000
                          1       3    4py               0.050000       0.052477
                                                         0.096935      -0.149600
                                                         0.300899      -0.031452
                                                         0.937529       0.106528
                                                         4.145546       0.000000
                          1       3    4pz               0.050000       0.052477
                                                         0.096935      -0.149600
                                                         0.300899      -0.031452
                                                         0.937529       0.106528
                                                         4.145546       0.000000

                          1       4    3dx2              0.050000       0.000000
                                                         0.096935       0.001258
                                                         0.300899       0.105504
                                                         0.937529       0.830801
                                                         4.145546       0.718979
                          1       4    3dxy              0.050000       0.000000
                                                         0.096935       0.002179
                                                         0.300899       0.182739
                                                         0.937529       1.438990
                                                         4.145546       1.245309
                          1       4    3dxz              0.050000       0.000000
                                                         0.096935       0.002179
                                                         0.300899       0.182739
                                                         0.937529       1.438990
                                                         4.145546       1.245309
                          1       4    3dy2              0.050000       0.000000
                                                         0.096935       0.001258
                                                         0.300899       0.105504
                                                         0.937529       0.830801
                                                         4.145546       0.718979
                          1       4    3dyz              0.050000       0.000000
                                                         0.096935       0.002179
                                                         0.300899       0.182739
                                                         0.937529       1.438990
                                                         4.145546       1.245309
                          1       4    3dz2              0.050000       0.000000
                                                         0.096935       0.001258
                                                         0.300899       0.105504
                                                         0.937529       0.830801
                                                         4.145546       0.718979

                          1       5    4dx2              0.050000      -0.011665
                                                         0.096935       0.057456
                                                         0.300899      -0.258169
                                                         0.937529       0.000000
                                                         4.145546       0.000000
                          1       5    4dxy              0.050000      -0.020204
                                                         0.096935       0.099516
                                                         0.300899      -0.447162
                                                         0.937529       0.000000
                                                         4.145546       0.000000
                          1       5    4dxz              0.050000      -0.020204
                                                         0.096935       0.099516
                                                         0.300899      -0.447162
                                                         0.937529       0.000000
                                                         4.145546       0.000000
                          1       5    4dy2              0.050000      -0.011665
                                                         0.096935       0.057456
                                                         0.300899      -0.258169
                                                         0.937529       0.000000
                                                         4.145546       0.000000
                          1       5    4dyz              0.050000      -0.020204
                                                         0.096935       0.099516
                                                         0.300899      -0.447162
                                                         0.937529       0.000000
                                                         4.145546       0.000000
                          1       5    4dz2              0.050000      -0.011665
                                                         0.096935       0.057456
                                                         0.300899      -0.258169
                                                         0.937529       0.000000
                                                         4.145546       0.000000

                          1       6    4fx3              0.050000      -0.000180
                                                         0.096935       0.008160
                                                         0.300899       0.004002
                                                         0.937529       0.000000
                                                         4.145546       0.000000
                          1       6    4fx2y             0.050000      -0.000402
                                                         0.096935       0.018246
                                                         0.300899       0.008949
                                                         0.937529       0.000000
                                                         4.145546       0.000000
                          1       6    4fx2z             0.050000      -0.000402
                                                         0.096935       0.018246
                                                         0.300899       0.008949
                                                         0.937529       0.000000
                                                         4.145546       0.000000
                          1       6    4fxy2             0.050000      -0.000402
                                                         0.096935       0.018246
                                                         0.300899       0.008949
                                                         0.937529       0.000000
                                                         4.145546       0.000000
                          1       6    4fxyz             0.050000      -0.000696
                                                         0.096935       0.031603
                                                         0.300899       0.015500
                                                         0.937529       0.000000
                                                         4.145546       0.000000
                          1       6    4fxz2             0.050000      -0.000402
                                                         0.096935       0.018246
                                                         0.300899       0.008949
                                                         0.937529       0.000000
                                                         4.145546       0.000000
                          1       6    4fy3              0.050000      -0.000180
                                                         0.096935       0.008160
                                                         0.300899       0.004002
                                                         0.937529       0.000000
                                                         4.145546       0.000000
                          1       6    4fy2z             0.050000      -0.000402
                                                         0.096935       0.018246
                                                         0.300899       0.008949
                                                         0.937529       0.000000
                                                         4.145546       0.000000
                          1       6    4fyz2             0.050000      -0.000402
                                                         0.096935       0.018246
                                                         0.300899       0.008949
                                                         0.937529       0.000000
                                                         4.145546       0.000000
                          1       6    4fz3              0.050000      -0.000180
                                                         0.096935       0.008160
                                                         0.300899       0.004002
                                                         0.937529       0.000000
                                                         4.145546       0.000000

                          2       1    1s                0.060000       0.000000
                                                         0.161278       0.024253
                                                         0.523772      -0.029268
                                                         3.176528       0.666384

                          2       2    2s                0.060000       0.000000
                                                         0.161278       0.080328
                                                         0.523772       0.279468
                                                         3.176528      -0.079506

                          2       3    3s                0.060000       0.000000
                                                         0.161278       0.225687
                                                         0.523772      -0.382710
                                                         3.176528      -0.308205

                          2       4    4s                0.060000      -0.055653
                                                         0.161278      -0.019607
                                                         0.523772       0.500289
                                                         3.176528       0.067234

     AE Potential information for                                            ALL

       Description:                                       All-electron potential
                                          Krack, Parrinello, PCCP 2, 2105 (2000)

       Gaussian exponent of the core charge distribution:               4.109048
       Electronic configuration (s p d ...):                           4   2   0

  3. Atomic kind: H                                     Number of atoms:       8

     Orbital Basis Set                                        aug-DZVP-MOLOPT-ae

       Number of orbital shell sets:                                           1
       Number of orbital shells:                                               5
       Number of primitive Cartesian functions:                                5
       Number of Cartesian basis functions:                                    9
       Number of spherical basis functions:                                    9
       Norm type:                                                              2

       Normalised Cartesian orbitals:

                        Set   Shell   Orbital            Exponent    Coefficient

                          1       1    2s                0.035000       0.000000
                                                         0.111920       0.009149
                                                         0.374948       0.205449
                                                         1.446686       0.373852
                                                        12.248855       0.310040

                          1       2    3s                0.035000       0.000000
                                                         0.111920       0.143650
                                                         0.374948       0.007287
                                                         1.446686      -0.188851
                                                        12.248855      -0.144753

                          1       3    4s                0.035000       0.090463
                                                         0.111920      -0.203934
                                                         0.374948      -0.000376
                                                         1.446686      -0.000051
                                                        12.248855       0.000000

                          1       4    3px               0.035000       0.000000
                                                         0.111920       0.007225
                                                         0.374948       0.280770
                                                         1.446686       0.896497
                                                        12.248855      -0.764411
                          1       4    3py               0.035000       0.000000
                                                         0.111920       0.007225
                                                         0.374948       0.280770
                                                         1.446686       0.896497
                                                        12.248855      -0.764411
                          1       4    3pz               0.035000       0.000000
                                                         0.111920       0.007225
                                                         0.374948       0.280770
                                                         1.446686       0.896497
                                                        12.248855      -0.764411

                          1       5    4px               0.035000       0.011331
                                                         0.111920       0.048737
                                                         0.374948       0.028490
                                                         1.446686       0.035587
                                                        12.248855       0.000000
                          1       5    4py               0.035000       0.011331
                                                         0.111920       0.048737
                                                         0.374948       0.028490
                                                         1.446686       0.035587
                                                        12.248855       0.000000
                          1       5    4pz               0.035000       0.011331
                                                         0.111920       0.048737
                                                         0.374948       0.028490
                                                         1.446686       0.035587
                                                        12.248855       0.000000

     RI Auxiliary Basis Set             RI_aug-DZVP-MOLOPT-ae_N_RI_018_s_p_d_f_g

       Number of orbital shell sets:                                           8
       Number of orbital shells:                                               8
       Number of primitive Cartesian functions:                                8
       Number of Cartesian basis functions:                                   19
       Number of spherical basis functions:                                   18
       Norm type:                                                              2

       Normalised Cartesian orbitals:

                        Set   Shell   Orbital            Exponent    Coefficient

                          1       1    5px               0.231880       0.229361
                          1       1    5py               0.231880       0.229361
                          1       1    5pz               0.231880       0.229361

                          2       1    1s                0.242716       0.246453

                          3       1    2s                0.577380       0.472070

                          4       1    6px               0.634295       0.806871
                          4       1    6py               0.634295       0.806871
                          4       1    6pz               0.634295       0.806871

                          5       1    8dx2              1.203508       2.276119
                          5       1    8dxy              1.203508       3.942354
                          5       1    8dxz              1.203508       3.942354
                          5       1    8dy2              1.203508       2.276119
                          5       1    8dyz              1.203508       3.942354
                          5       1    8dz2              1.203508       2.276119

                          6       1    3s                1.798376       1.106803

                          7       1    7px               1.931390       3.245469
                          7       1    7py               1.931390       3.245469
                          7       1    7pz               1.931390       3.245469

                          8       1    4s                9.576928       3.879982

       Atomic covalent radius [Angstrom]:                                  0.320

       Atomic van der Waals radius [Angstrom]:                             1.090

     The atoms of this atomic kind are PAW atoms (GAPW):
       Hard Gaussian function radius:                                      1.200
       Rho0 radius:                                                        1.200
       Maximum GTO radius used for PAW projector construction:            24.566

     GAPW Soft Basis Set                                 aug-DZVP-MOLOPT-ae_soft

       Number of orbital shell sets:                                           1
       Number of orbital shells:                                               5
       Number of primitive Cartesian functions:                                4
       Number of Cartesian basis functions:                                    9
       Number of spherical basis functions:                                    9
       Norm type:                                                              2

       Normalised Cartesian orbitals:

                        Set   Shell   Orbital            Exponent    Coefficient

                          1       1    2s                0.035000       0.000000
                                                         0.111920       0.009149
                                                         0.374948       0.205449
                                                         1.446686       0.373852

                          1       2    3s                0.035000       0.000000
                                                         0.111920       0.143650
                                                         0.374948       0.007287
                                                         1.446686      -0.188851

                          1       3    4s                0.035000       0.090463
                                                         0.111920      -0.203934
                                                         0.374948      -0.000376
                                                         1.446686      -0.000051

                          1       4    3px               0.035000       0.000000
                                                         0.111920       0.007225
                                                         0.374948       0.280770
                                                         1.446686       0.896497
                          1       4    3py               0.035000       0.000000
                                                         0.111920       0.007225
                                                         0.374948       0.280770
                                                         1.446686       0.896497
                          1       4    3pz               0.035000       0.000000
                                                         0.111920       0.007225
                                                         0.374948       0.280770
                                                         1.446686       0.896497

                          1       5    4px               0.035000       0.011331
                                                         0.111920       0.048737
                                                         0.374948       0.028490
                                                         1.446686       0.035587
                          1       5    4py               0.035000       0.011331
                                                         0.111920       0.048737
                                                         0.374948       0.028490
                                                         1.446686       0.035587
                          1       5    4pz               0.035000       0.011331
                                                         0.111920       0.048737
                                                         0.374948       0.028490
                                                         1.446686       0.035587

     AE Potential information for                                            ALL

       Description:                                       All-electron potential
                                          Krack, Parrinello, PCCP 2, 2105 (2000)

       Gaussian exponent of the core charge distribution:              12.500000
       Electronic configuration (s p d ...):                           1   0   0

  4. Atomic kind: N                                     Number of atoms:       2

     Orbital Basis Set                                        aug-DZVP-MOLOPT-ae

       Number of orbital shell sets:                                           2
       Number of orbital shells:                                              10
       Number of primitive Cartesian functions:                               12
       Number of Cartesian basis functions:                                   35
       Number of spherical basis functions:                                   30
       Norm type:                                                              2

       Normalised Cartesian orbitals:

                        Set   Shell   Orbital            Exponent    Coefficient

                          1       1    2s                0.060000      -0.096639
                                                         0.166384       0.037538
                                                         0.634073      -0.055669
                                                         2.325354       0.000000
                                                        12.268174       0.000000

                          1       2    3px               0.060000       0.000000
                                                         0.166384      -0.031930
                                                         0.634073      -0.492962
                                                         2.325354      -1.380142
                                                        12.268174      -2.349358
                          1       2    3py               0.060000       0.000000
                                                         0.166384      -0.031930
                                                         0.634073      -0.492962
                                                         2.325354      -1.380142
                                                        12.268174      -2.349358
                          1       2    3pz               0.060000       0.000000
                                                         0.166384      -0.031930
                                                         0.634073      -0.492962
                                                         2.325354      -1.380142
                                                        12.268174      -2.349358

                          1       3    4px               0.060000       0.000000
                                                         0.166384       0.169694
                                                         0.634073      -0.220766
                                                         2.325354      -0.809234
                                                        12.268174      -0.998521
                          1       3    4py               0.060000       0.000000
                                                         0.166384       0.169694
                                                         0.634073      -0.220766
                                                         2.325354      -0.809234
                                                        12.268174      -0.998521
                          1       3    4pz               0.060000       0.000000
                                                         0.166384       0.169694
                                                         0.634073      -0.220766
                                                         2.325354      -0.809234
                                                        12.268174      -0.998521

                          1       4    5px               0.060000       0.028594
                                                         0.166384       0.063224
                                                         0.634073      -0.046183
                                                         2.325354       0.000000
                                                        12.268174       0.000000
                          1       4    5py               0.060000       0.028594
                                                         0.166384       0.063224
                                                         0.634073      -0.046183
                                                         2.325354       0.000000
                                                        12.268174       0.000000
                          1       4    5pz               0.060000       0.028594
                                                         0.166384       0.063224
                                                         0.634073      -0.046183
                                                         2.325354       0.000000
                                                        12.268174       0.000000

                          1       5    4dx2              0.060000       0.000000
                                                         0.166384       0.019402
                                                         0.634073       0.555487
                                                         2.325354       1.255926
                                                        12.268174      -0.426175
                          1       5    4dxy              0.060000       0.000000
                                                         0.166384       0.033606
                                                         0.634073       0.962132
                                                         2.325354       2.175327
                                                        12.268174      -0.738157
                          1       5    4dxz              0.060000       0.000000
                                                         0.166384       0.033606
                                                         0.634073       0.962132
                                                         2.325354       2.175327
                                                        12.268174      -0.738157
                          1       5    4dy2              0.060000       0.000000
                                                         0.166384       0.019402
                                                         0.634073       0.555487
                                                         2.325354       1.255926
                                                        12.268174      -0.426175
                          1       5    4dyz              0.060000       0.000000
                                                         0.166384       0.033606
                                                         0.634073       0.962132
                                                         2.325354       2.175327
                                                        12.268174      -0.738157
                          1       5    4dz2              0.060000       0.000000
                                                         0.166384       0.019402
                                                         0.634073       0.555487
                                                         2.325354       1.255926
                                                        12.268174      -0.426175

                          1       6    5dx2              0.060000      -0.008089
                                                         0.166384      -0.027907
                                                         0.634073      -0.057221
                                                         2.325354       0.000000
                                                        12.268174       0.000000
                          1       6    5dxy              0.060000      -0.014011
                                                         0.166384      -0.048336
                                                         0.634073      -0.099109
                                                         2.325354       0.000000
                                                        12.268174       0.000000
                          1       6    5dxz              0.060000      -0.014011
                                                         0.166384      -0.048336
                                                         0.634073      -0.099109
                                                         2.325354       0.000000
                                                        12.268174       0.000000
                          1       6    5dy2              0.060000      -0.008089
                                                         0.166384      -0.027907
                                                         0.634073      -0.057221
                                                         2.325354       0.000000
                                                        12.268174       0.000000
                          1       6    5dyz              0.060000      -0.014011
                                                         0.166384      -0.048336
                                                         0.634073      -0.099109
                                                         2.325354       0.000000
                                                        12.268174       0.000000
                          1       6    5dz2              0.060000      -0.008089
                                                         0.166384      -0.027907
                                                         0.634073      -0.057221
                                                         2.325354       0.000000
                                                        12.268174       0.000000

                          1       7    5fx3              0.060000       0.000067
                                                         0.166384       0.012645
                                                         0.634073       0.328269
                                                         2.325354       1.687172
                                                        12.268174       0.000000
                          1       7    5fx2y             0.060000       0.000150
                                                         0.166384       0.028275
                                                         0.634073       0.734031
                                                         2.325354       3.772631
                                                        12.268174       0.000000
                          1       7    5fx2z             0.060000       0.000150
                                                         0.166384       0.028275
                                                         0.634073       0.734031
                                                         2.325354       3.772631
                                                        12.268174       0.000000
                          1       7    5fxy2             0.060000       0.000150
                                                         0.166384       0.028275
                                                         0.634073       0.734031
                                                         2.325354       3.772631
                                                        12.268174       0.000000
                          1       7    5fxyz             0.060000       0.000260
                                                         0.166384       0.048973
                                                         0.634073       1.271379
                                                         2.325354       6.534389
                                                        12.268174       0.000000
                          1       7    5fxz2             0.060000       0.000150
                                                         0.166384       0.028275
                                                         0.634073       0.734031
                                                         2.325354       3.772631
                                                        12.268174       0.000000
                          1       7    5fy3              0.060000       0.000067
                                                         0.166384       0.012645
                                                         0.634073       0.328269
                                                         2.325354       1.687172
                                                        12.268174       0.000000
                          1       7    5fy2z             0.060000       0.000150
                                                         0.166384       0.028275
                                                         0.634073       0.734031
                                                         2.325354       3.772631
                                                        12.268174       0.000000
                          1       7    5fyz2             0.060000       0.000150
                                                         0.166384       0.028275
                                                         0.634073       0.734031
                                                         2.325354       3.772631
                                                        12.268174       0.000000
                          1       7    5fz3              0.060000       0.000067
                                                         0.166384       0.012645
                                                         0.634073       0.328269
                                                         2.325354       1.687172
                                                        12.268174       0.000000

                          2       1    1s                0.191012      -0.002582
                                                         0.666629       0.012902
                                                         4.403487      -0.858326
                                                        14.651380      -2.749170
                                                        57.692026      -2.958222
                                                       257.997554      -1.897300
                                                      1713.054433      -1.166486

                          2       2    2s                0.191012       0.079194
                                                         0.666629       0.351708
                                                         4.403487       0.009155
                                                        14.651380       0.000424
                                                        57.692026       0.772862
                                                       257.997554      -0.458166
                                                      1713.054433       0.520658

                          2       3    3s                0.191012       0.300064
                                                         0.666629      -0.436823
                                                         4.403487      -0.072962
                                                        14.651380      -0.095292
                                                        57.692026      -1.262420
                                                       257.997554       0.741400
                                                      1713.054433      -0.270364

     RI Auxiliary Basis Set             RI_aug-DZVP-MOLOPT-ae_N_RI_068_s_p_d_f_g

       Number of orbital shell sets:                                          18
       Number of orbital shells:                                              18
       Number of primitive Cartesian functions:                               18
       Number of Cartesian basis functions:                                   89
       Number of spherical basis functions:                                   68
       Norm type:                                                              2

       Normalised Cartesian orbitals:

                        Set   Shell   Orbital            Exponent    Coefficient

                          1       1    1s                0.316507       0.300745

                          2       1    7px               0.411372       0.469606
                          2       1    7py               0.411372       0.469606
                          2       1    7pz               0.411372       0.469606

                          3       1   12dx2              0.420321       0.361141
                          3       1   12dxy              0.420321       0.625515
                          3       1   12dxz              0.420321       0.625515
                          3       1   12dy2              0.420321       0.361141
                          3       1   12dyz              0.420321       0.625515
                          3       1   12dz2              0.420321       0.361141

                          4       1    2s                0.572208       0.468895

                          5       1   15fx3              0.629994       0.520548
                          5       1   15fx2y             0.629994       1.163981
                          5       1   15fx2z             0.629994       1.163981
                          5       1   15fxy2             0.629994       1.163981
                          5       1   15fxyz             0.629994       2.016074
                          5       1   15fxz2             0.629994       1.163981
                          5       1   15fy3              0.629994       0.520548
                          5       1   15fy2z             0.629994       1.163981
                          5       1   15fyz2             0.629994       1.163981
                          5       1   15fz3              0.629994       0.520548

                          6       1   17gx4              0.692736       0.405505
                          6       1   17gx3y             0.692736       1.072866
                          6       1   17gx3z             0.692736       1.072866
                          6       1   17gx2y2            0.692736       1.385065
                          6       1   17gx2yz            0.692736       2.399002
                          6       1   17gx2z2            0.692736       1.385065
                          6       1   17gxy3             0.692736       1.072866
                          6       1   17gxy2z            0.692736       2.399002
                          6       1   17gxyz2            0.692736       2.399002
                          6       1   17gxz3             0.692736       1.072866
                          6       1   17gy4              0.692736       0.405505
                          6       1   17gy3z             0.692736       1.072866
                          6       1   17gy2z2            0.692736       1.385065
                          6       1   17gyz3             0.692736       1.072866
                          6       1   17gz4              0.692736       0.405505

                          7       1    8px               0.809255       1.094074
                          7       1    8py               0.809255       1.094074
                          7       1    8pz               0.809255       1.094074

                          8       1   13dx2              1.116728       1.996720
                          8       1   13dxy              1.116728       3.458420
                          8       1   13dxz              1.116728       3.458420
                          8       1   13dy2              1.116728       1.996720
                          8       1   13dyz              1.116728       3.458420
                          8       1   13dz2              1.116728       1.996720

                          9       1   16fx3              1.860786       5.953484
                          9       1   16fx2y             1.860786      13.312396
                          9       1   16fx2z             1.860786      13.312396
                          9       1   16fxy2             1.860786      13.312396
                          9       1   16fxyz             1.860786      23.057746
                          9       1   16fxz2             1.860786      13.312396
                          9       1   16fy3              1.860786       5.953484
                          9       1   16fy2z             1.860786      13.312396
                          9       1   16fyz2             1.860786      13.312396
                          9       1   16fz3              1.860786       5.953484

                         10       1    3s                1.926951       1.165636

                         11       1   18gx4              2.001118       7.497825
                         11       1   18gx3y             2.001118      19.837381
                         11       1   18gx3z             2.001118      19.837381
                         11       1   18gx2y2            2.001118      25.609949
                         11       1   18gx2yz            2.001118      44.357732
                         11       1   18gx2z2            2.001118      25.609949
                         11       1   18gxy3             2.001118      19.837381
                         11       1   18gxy2z            2.001118      44.357732
                         11       1   18gxyz2            2.001118      44.357732
                         11       1   18gxz3             2.001118      19.837381
                         11       1   18gy4              2.001118       7.497825
                         11       1   18gy3z             2.001118      19.837381
                         11       1   18gy2z2            2.001118      25.609949
                         11       1   18gyz3             2.001118      19.837381
                         11       1   18gz4              2.001118       7.497825

                         12       1    9px               2.328647       4.100338
                         12       1    9py               2.328647       4.100338
                         12       1    9pz               2.328647       4.100338

                         13       1   14dx2              4.352409      21.586706
                         13       1   14dxy              4.352409      37.389272
                         13       1   14dxz              4.352409      37.389272
                         13       1   14dy2              4.352409      21.586706
                         13       1   14dyz              4.352409      37.389272
                         13       1   14dz2              4.352409      21.586706

                         14       1   10px               7.477199      17.624377
                         14       1   10py               7.477199      17.624377
                         14       1   10pz               7.477199      17.624377

                         15       1    4s                8.036605       3.401845

                         16       1   11px              22.170865      68.575405
                         16       1   11py              22.170865      68.575405
                         16       1   11pz              22.170865      68.575405

                         17       1    5s               30.191114       9.179509

                         18       1    6s              110.060970      24.217823

       Atomic covalent radius [Angstrom]:                                  0.750

       Atomic van der Waals radius [Angstrom]:                             1.550

     The atoms of this atomic kind are PAW atoms (GAPW):
       Hard Gaussian function radius:                                      1.512
       Rho0 radius:                                                        1.512
       Maximum GTO radius used for PAW projector construction:            24.566

     GAPW Soft Basis Set                                 aug-DZVP-MOLOPT-ae_soft

       Number of orbital shell sets:                                           2
       Number of orbital shells:                                              10
       Number of primitive Cartesian functions:                                6
       Number of Cartesian basis functions:                                   35
       Number of spherical basis functions:                                   30
       Norm type:                                                              2

       Normalised Cartesian orbitals:

                        Set   Shell   Orbital            Exponent    Coefficient

                          1       1    2s                0.060000      -0.096639
                                                         0.166384       0.037538
                                                         0.634073      -0.055669
                                                         2.325354       0.000000

                          1       2    3px               0.060000       0.000000
                                                         0.166384      -0.031930
                                                         0.634073      -0.492962
                                                         2.325354      -1.380142
                          1       2    3py               0.060000       0.000000
                                                         0.166384      -0.031930
                                                         0.634073      -0.492962
                                                         2.325354      -1.380142
                          1       2    3pz               0.060000       0.000000
                                                         0.166384      -0.031930
                                                         0.634073      -0.492962
                                                         2.325354      -1.380142

                          1       3    4px               0.060000       0.000000
                                                         0.166384       0.169694
                                                         0.634073      -0.220766
                                                         2.325354      -0.809234
                          1       3    4py               0.060000       0.000000
                                                         0.166384       0.169694
                                                         0.634073      -0.220766
                                                         2.325354      -0.809234
                          1       3    4pz               0.060000       0.000000
                                                         0.166384       0.169694
                                                         0.634073      -0.220766
                                                         2.325354      -0.809234

                          1       4    5px               0.060000       0.028594
                                                         0.166384       0.063224
                                                         0.634073      -0.046183
                                                         2.325354       0.000000
                          1       4    5py               0.060000       0.028594
                                                         0.166384       0.063224
                                                         0.634073      -0.046183
                                                         2.325354       0.000000
                          1       4    5pz               0.060000       0.028594
                                                         0.166384       0.063224
                                                         0.634073      -0.046183
                                                         2.325354       0.000000

                          1       5    4dx2              0.060000       0.000000
                                                         0.166384       0.019402
                                                         0.634073       0.555487
                                                         2.325354       1.255926
                          1       5    4dxy              0.060000       0.000000
                                                         0.166384       0.033606
                                                         0.634073       0.962132
                                                         2.325354       2.175327
                          1       5    4dxz              0.060000       0.000000
                                                         0.166384       0.033606
                                                         0.634073       0.962132
                                                         2.325354       2.175327
                          1       5    4dy2              0.060000       0.000000
                                                         0.166384       0.019402
                                                         0.634073       0.555487
                                                         2.325354       1.255926
                          1       5    4dyz              0.060000       0.000000
                                                         0.166384       0.033606
                                                         0.634073       0.962132
                                                         2.325354       2.175327
                          1       5    4dz2              0.060000       0.000000
                                                         0.166384       0.019402
                                                         0.634073       0.555487
                                                         2.325354       1.255926

                          1       6    5dx2              0.060000      -0.008089
                                                         0.166384      -0.027907
                                                         0.634073      -0.057221
                                                         2.325354       0.000000
                          1       6    5dxy              0.060000      -0.014011
                                                         0.166384      -0.048336
                                                         0.634073      -0.099109
                                                         2.325354       0.000000
                          1       6    5dxz              0.060000      -0.014011
                                                         0.166384      -0.048336
                                                         0.634073      -0.099109
                                                         2.325354       0.000000
                          1       6    5dy2              0.060000      -0.008089
                                                         0.166384      -0.027907
                                                         0.634073      -0.057221
                                                         2.325354       0.000000
                          1       6    5dyz              0.060000      -0.014011
                                                         0.166384      -0.048336
                                                         0.634073      -0.099109
                                                         2.325354       0.000000
                          1       6    5dz2              0.060000      -0.008089
                                                         0.166384      -0.027907
                                                         0.634073      -0.057221
                                                         2.325354       0.000000

                          1       7    5fx3              0.060000       0.000067
                                                         0.166384       0.012645
                                                         0.634073       0.328269
                                                         2.325354       1.687172
                          1       7    5fx2y             0.060000       0.000150
                                                         0.166384       0.028275
                                                         0.634073       0.734031
                                                         2.325354       3.772631
                          1       7    5fx2z             0.060000       0.000150
                                                         0.166384       0.028275
                                                         0.634073       0.734031
                                                         2.325354       3.772631
                          1       7    5fxy2             0.060000       0.000150
                                                         0.166384       0.028275
                                                         0.634073       0.734031
                                                         2.325354       3.772631
                          1       7    5fxyz             0.060000       0.000260
                                                         0.166384       0.048973
                                                         0.634073       1.271379
                                                         2.325354       6.534389
                          1       7    5fxz2             0.060000       0.000150
                                                         0.166384       0.028275
                                                         0.634073       0.734031
                                                         2.325354       3.772631
                          1       7    5fy3              0.060000       0.000067
                                                         0.166384       0.012645
                                                         0.634073       0.328269
                                                         2.325354       1.687172
                          1       7    5fy2z             0.060000       0.000150
                                                         0.166384       0.028275
                                                         0.634073       0.734031
                                                         2.325354       3.772631
                          1       7    5fyz2             0.060000       0.000150
                                                         0.166384       0.028275
                                                         0.634073       0.734031
                                                         2.325354       3.772631
                          1       7    5fz3              0.060000       0.000067
                                                         0.166384       0.012645
                                                         0.634073       0.328269
                                                         2.325354       1.687172

                          2       1    1s                0.191012      -0.002582
                                                         0.666629       0.012902

                          2       2    2s                0.191012       0.079194
                                                         0.666629       0.351708

                          2       3    3s                0.191012       0.300064
                                                         0.666629      -0.436823

     AE Potential information for                                            ALL

       Description:                                       All-electron potential
                                          Krack, Parrinello, PCCP 2, 2105 (2000)

       Gaussian exponent of the core charge distribution:               5.979100
       Electronic configuration (s p d ...):                           4   3   0


 MOLECULE KIND INFORMATION


 All atoms are their own molecule, skipping detailed information


 TOTAL NUMBERS AND MAXIMUM NUMBERS

  Total number of            - Atomic kinds:                                   4
                             - Atoms:                                         18
                             - Shell sets:                                    30
                             - Shells:                                       144
                             - Primitive Cartesian functions:                178
                             - Cartesian basis functions:                    430
                             - Spherical basis functions:                    380

  Maximum angular momentum of the orbital basis functions:                     3


 MODULE QUICKSTEP: ATOMIC COORDINATES IN ANGSTROM

   Atom Kind Element         X             Y             Z       Z(eff)     Mass
      1    1 S    16     12.389290     14.218681     13.377786  16.0000  32.0650
      2    2 C     6     15.846137     12.997641     13.995128   6.0000  12.0107
      3    3 H     1     16.921611     12.798821     13.988478   1.0000   1.0079
      4    3 H     1     15.458985     13.017178     12.968849   1.0000   1.0079
      5    1 S    16     12.694994     13.143119     16.258155  16.0000  32.0650
      6    4 N     7     15.612813     14.282297     14.638661   7.0000  14.0067
      7    4 N     7     14.562647     15.967545     15.533530   7.0000  14.0067
      8    2 C     6     13.110695     14.003336     14.878026   6.0000  12.0107
      9    2 C     6     16.561255     15.248922     14.924552   6.0000  12.0107
     10    2 C     6     15.905119     16.301128     15.487486   6.0000  12.0107
     11    2 C     6     14.389143     14.728541     15.012746   6.0000  12.0107
     12    2 C     6     13.484144     16.773183     16.087354   6.0000  12.0107
     13    3 H     1     16.274795     17.248485     15.855496   1.0000   1.0079
     14    3 H     1     15.329287     12.212395     14.558351   1.0000   1.0079
     15    3 H     1     13.855894     17.787605     16.257268   1.0000   1.0079
     16    3 H     1     13.136656     16.335089     17.031151   1.0000   1.0079
     17    3 H     1     12.650736     16.799835     15.376189   1.0000   1.0079
     18    3 H     1     17.610710     15.106902     14.705344   1.0000   1.0079



 SCF PARAMETERS         Density guess:                                    ATOMIC
                        --------------------------------------------------------
                        max_scf:                                             500
                        max_scf_history:                                       0
                        max_diis:                                              4
                        --------------------------------------------------------
                        eps_scf:                                        1.00E-06
                        eps_scf_history:                                0.00E+00
                        eps_diis:                                       1.00E-01
                        eps_eigval:                                     1.00E-05
                        --------------------------------------------------------
                        level_shift [a.u.]:                             0.000000
                        added MOs                                       335    0
                        --------------------------------------------------------
                        Mixing method:                            BROYDEN_MIXING
                                                charge density mixing in g-space
                        --------------------------------------------------------
                        No outer SCF

 PW_GRID| Information for grid number                                          1
 PW_GRID| Grid distributed over                                   192 processors
 PW_GRID| Real space group dimensions                                   192    1
 PW_GRID| the grid is blocked:                                                NO
 PW_GRID| Cutoff [a.u.]                                                    250.0
 PW_GRID| spherical cutoff:                                                   NO
 PW_GRID|   Bounds   1           -202     202                Points:         405
 PW_GRID|   Bounds   2           -202     202                Points:         405
 PW_GRID|   Bounds   3           -202     202                Points:         405
 PW_GRID| Volume element (a.u.^3)  0.2743E-02     Volume (a.u.^3)    182205.0337
 PW_GRID| Grid span                                                    FULLSPACE
 PW_GRID|   Distribution                         Average         Max         Min
 PW_GRID|   G-Vectors                           345990.2      346275      345870
 PW_GRID|   G-Rays                                 854.3         855         854
 PW_GRID|   Real Space Points                   345990.2      492075      328050

 PW_GRID| Information for grid number                                          2
 PW_GRID| Number of the reference grid                                         1
 PW_GRID| Grid distributed over                                   192 processors
 PW_GRID| Real space group dimensions                                   192    1
 PW_GRID| the grid is blocked:                                                NO
 PW_GRID| Cutoff [a.u.]                                                     83.3
 PW_GRID| spherical cutoff:                                                   NO
 PW_GRID|   Bounds   1           -120     119                Points:         240
 PW_GRID|   Bounds   2           -120     119                Points:         240
 PW_GRID|   Bounds   3           -120     119                Points:         240
 PW_GRID| Volume element (a.u.^3)  0.1318E-01     Volume (a.u.^3)    182205.0337
 PW_GRID| Grid span                                                    FULLSPACE
 PW_GRID|   Distribution                         Average         Max         Min
 PW_GRID|   G-Vectors                            72000.0       72240       71760
 PW_GRID|   G-Rays                                 300.0         301         299
 PW_GRID|   Real Space Points                    72000.0      115200       57600

 PW_GRID| Information for grid number                                          3
 PW_GRID| Number of the reference grid                                         1
 PW_GRID| Grid distributed over                                   192 processors
 PW_GRID| Real space group dimensions                                    12   16
 PW_GRID| the grid is blocked:                                                NO
 PW_GRID| Cutoff [a.u.]                                                     27.8
 PW_GRID| spherical cutoff:                                                   NO
 PW_GRID|   Bounds   1            -67      67                Points:         135
 PW_GRID|   Bounds   2            -67      67                Points:         135
 PW_GRID|   Bounds   3            -67      67                Points:         135
 PW_GRID| Volume element (a.u.^3)  0.7406E-01     Volume (a.u.^3)    182205.0337
 PW_GRID| Grid span                                                    FULLSPACE
 PW_GRID|   Distribution                         Average         Max         Min
 PW_GRID|   G-Vectors                            12814.5       12960       12690
 PW_GRID|   G-Rays                                  94.9          96          94
 PW_GRID|   Real Space Points                    12814.5       14580       11880

 PW_GRID| Information for grid number                                          4
 PW_GRID| Number of the reference grid                                         1
 PW_GRID| Grid distributed over                                   192 processors
 PW_GRID| Real space group dimensions                                    12   16
 PW_GRID| the grid is blocked:                                                NO
 PW_GRID| Cutoff [a.u.]                                                      9.3
 PW_GRID| spherical cutoff:                                                   NO
 PW_GRID|   Bounds   1            -40      39                Points:          80
 PW_GRID|   Bounds   2            -40      39                Points:          80
 PW_GRID|   Bounds   3            -40      39                Points:          80
 PW_GRID| Volume element (a.u.^3)  0.3559         Volume (a.u.^3)    182205.0337
 PW_GRID| Grid span                                                    FULLSPACE
 PW_GRID|   Distribution                         Average         Max         Min
 PW_GRID|   G-Vectors                             2666.7        2800        2560
 PW_GRID|   G-Rays                                  33.3          35          32
 PW_GRID|   Real Space Points                     2666.7        2800        2400

 POISSON| Solver                                                         WAVELET
 POISSON| Wavelet| Scaling function                                           40
 POISSON| Periodicity                                                       NONE

 RS_GRID| Information for grid number                                          1
 RS_GRID|   Bounds   1           -202     202                Points:         405
 RS_GRID|   Bounds   2           -202     202                Points:         405
 RS_GRID|   Bounds   3           -202     202                Points:         405
 RS_GRID| Real space distribution over                                  4 groups
 RS_GRID| Real space distribution along direction                              1
 RS_GRID| Border size                                                         35
 RS_GRID| Real space distribution over                                  6 groups
 RS_GRID| Real space distribution along direction                              2
 RS_GRID| Border size                                                         35
 RS_GRID| Real space distribution over                                  8 groups
 RS_GRID| Real space distribution along direction                              3
 RS_GRID| Border size                                                         35
 RS_GRID|   Distribution                         Average         Max         Min
 RS_GRID|   Planes                                 171.2         172         171
 RS_GRID|   Distribution                         Average         Max         Min
 RS_GRID|   Planes                                 137.5         138         137
 RS_GRID|   Distribution                         Average         Max         Min
 RS_GRID|   Planes                                 120.6         121         120

 RS_GRID| Information for grid number                                          2
 RS_GRID|   Bounds   1           -120     119                Points:         240
 RS_GRID|   Bounds   2           -120     119                Points:         240
 RS_GRID|   Bounds   3           -120     119                Points:         240
 RS_GRID| Real space distribution over                                  4 groups
 RS_GRID| Real space distribution along direction                              1
 RS_GRID| Border size                                                         39
 RS_GRID| Real space distribution over                                  6 groups
 RS_GRID| Real space distribution along direction                              2
 RS_GRID| Border size                                                         39
 RS_GRID| Real space distribution over                                  8 groups
 RS_GRID| Real space distribution along direction                              3
 RS_GRID| Border size                                                         39
 RS_GRID|   Distribution                         Average         Max         Min
 RS_GRID|   Planes                                 138.0         138         138
 RS_GRID|   Distribution                         Average         Max         Min
 RS_GRID|   Planes                                 118.0         118         118
 RS_GRID|   Distribution                         Average         Max         Min
 RS_GRID|   Planes                                 108.0         108         108

 RS_GRID| Information for grid number                                          3
 RS_GRID|   Bounds   1            -67      67                Points:         135
 RS_GRID|   Bounds   2            -67      67                Points:         135
 RS_GRID|   Bounds   3            -67      67                Points:         135
 RS_GRID| Real space fully replicated
 RS_GRID| Group size                                                           1

 RS_GRID| Information for grid number                                          4
 RS_GRID|   Bounds   1            -40      39                Points:          80
 RS_GRID|   Bounds   2            -40      39                Points:          80
 RS_GRID|   Bounds   3            -40      39                Points:          80
 RS_GRID| Real space fully replicated
 RS_GRID| Group size                                                           1

  HFX_INFO| Replica ID:                                                        1
  HFX_INFO| FRACTION:                                               0.2500000000
  HFX_INFO| Interaction Potential:                                       COULOMB
  HFX_INFO| EPS_SCHWARZ:                                                 1.0E-10
  HFX_INFO| EPS_SCHWARZ_FORCES                                           1.0E-08
  HFX_INFO| EPS_STORAGE_SCALING:                                         1.0E+00
  HFX_INFO| NBINS:                                                            64
  HFX_INFO| BLOCK_SIZE:                                                        1
  HFX_INFO| Number of periodic shells considered:                           NONE
  HFX_INFO| Number of periodic cells considered:                            NONE


 OVERLAP MATRIX CONDITION NUMBER
 1-Norm Condition Number (Estimate)
   CN : |A|*|A^-1|:  3.910E+001 *  5.747E+004   = 2.247E+006  Log(1-CN):  6.3516
 1-Norm and 2-Norm Condition Numbers using Diagonalization
   CN : |A|*|A^-1|:  3.910E+001 *  5.798E+004   = 2.267E+006  Log(1-CN):  6.3555
   CN : max/min ev:  1.238E+001 /  5.248E-005   = 2.359E+005  Log(2-CN):  5.3727

 Extrapolation method: initial_guess

 Atomic guess: The first density matrix is obtained in terms of atomic orbitals
               and electronic configurations assigned to each atomic kind

 Guess for atomic kind: S

 Electronic structure
    Total number of core electrons                                          0.00
    Total number of valence electrons                                      16.00
    Total number of electrons                                              16.00
    Multiplicity                                                   not specified
    S      2.00  2.00  2.00
    P      6.00  4.00


 *******************************************************************************
                  Iteration          Convergence                     Energy [au]
 *******************************************************************************
                          1        0.508992                    -396.532503655990
                          2        0.158529                    -396.545404359598
                          3        0.440887E-01                -396.549661500960
                          4        0.692753E-03                -396.550151447682
                          5        0.988290E-05                -396.550151571718
                          6        0.574825E-08                -396.550151571747

 Energy components [Hartree]           Total Energy ::         -396.550151571747
                                        Band Energy ::         -227.617519441937
                                     Kinetic Energy ::          396.442273376157
                                   Potential Energy ::         -792.992424947904
                                      Virial (-V/T) ::            2.000272115773
                                        Core Energy ::         -549.094947582507
                                          XC Energy ::          -24.160563523673
                                     Coulomb Energy ::          176.705359534434

 Orbital energies  State     L     Occupation   Energy[a.u.]          Energy[eV]

                       1     0          2.000     -87.724168        -2387.096014
                       2     0          2.000      -7.695851         -209.414757
                       3     0          2.000      -0.626682          -17.052872

                       1     1          6.000      -5.751215         -156.498516
                       2     1          4.000      -0.254207           -6.917329


 Total Electron Density at R=0:                                      2398.079628

 Guess for atomic kind: C

 Electronic structure
    Total number of core electrons                                          0.00
    Total number of valence electrons                                       6.00
    Total number of electrons                                               6.00
    Multiplicity                                                   not specified
    S      2.00  2.00
    P      2.00


 *******************************************************************************
                  Iteration          Convergence                     Energy [au]
 *******************************************************************************
                          1        0.133902                     -37.363061759844
                          2        0.102325                     -37.368472442707
                          3        0.860737E-03                 -37.376215693871
                          4        0.849047E-04                 -37.376216293501
                          5        0.219397E-06                 -37.376216298714

 Energy components [Hartree]           Total Energy ::          -37.376216298714
                                        Band Energy ::          -21.245708131867
                                     Kinetic Energy ::           37.464666877769
                                   Potential Energy ::          -74.840883176484
                                      Virial (-V/T) ::            1.997639093407
                                        Core Energy ::          -50.271057779086
                                          XC Energy ::           -4.736056292831
                                     Coulomb Energy ::           17.630897773203

 Orbital energies  State     L     Occupation   Energy[a.u.]          Energy[eV]

                       1     0          2.000      -9.941022         -270.508975
                       2     0          2.000      -0.490185          -13.338601

                       1     1          2.000      -0.191647           -5.214984


 Total Electron Density at R=0:                                       116.283880

 Guess for atomic kind: H

 Electronic structure
    Total number of core electrons                                          0.00
    Total number of valence electrons                                       1.00
    Total number of electrons                                               1.00
    Multiplicity                                                   not specified
    S      1.00


 *******************************************************************************
                  Iteration          Convergence                     Energy [au]
 *******************************************************************************
                          1        0.100530E-01                  -0.443985550189
                          2        0.945329E-03                  -0.444090029920
                          3        0.103025E-03                  -0.444092117382
                          4        0.802727E-07                  -0.444092129626

 Energy components [Hartree]           Total Energy ::           -0.444092129626
                                        Band Energy ::           -0.233486998571
                                     Kinetic Energy ::            0.420413643923
                                   Potential Energy ::           -0.864505773549
                                      Virial (-V/T) ::            2.056321877382
                                        Core Energy ::           -0.493965249450
                                          XC Energy ::           -0.230662915809
                                     Coulomb Energy ::            0.280536035634

 Orbital energies  State     L     Occupation   Energy[a.u.]          Energy[eV]

                       1     0          1.000      -0.233487           -6.353504


 Total Electron Density at R=0:                                         0.246678

 Guess for atomic kind: N

 Electronic structure
    Total number of core electrons                                          0.00
    Total number of valence electrons                                       7.00
    Total number of electrons                                               7.00
    Multiplicity                                                   not specified
    S      2.00  2.00
    P      3.00


 *******************************************************************************
                  Iteration          Convergence                     Energy [au]
 *******************************************************************************
                          1        0.369390                     -53.855844969821
                          2        0.273078                     -53.870170065147
                          3        0.611788E-02                 -53.916370559561
                          4        0.258022E-03                 -53.916388709621
                          5        0.100264E-04                 -53.916388753242
                          6        0.664221E-07                 -53.916388753301

 Energy components [Hartree]           Total Energy ::          -53.916388753301
                                        Band Energy ::          -30.277671893433
                                     Kinetic Energy ::           53.943449639882
                                   Potential Energy ::         -107.859838393183
                                      Virial (-V/T) ::            1.999498347125
                                        Core Energy ::          -73.381511064535
                                          XC Energy ::           -6.114835262346
                                     Coulomb Energy ::           25.579957573581

 Orbital energies  State     L     Occupation   Energy[a.u.]          Energy[eV]

                       1     0          2.000     -14.050793         -382.341534
                       2     0          2.000      -0.664480          -18.081407

                       1     1          3.000      -0.282375           -7.683823


 Total Electron Density at R=0:                                       189.469012
 Re-scaling the density matrix to get the right number of electrons
                  # Electrons              Trace(P)               Scaling factor
                           90                90.000                        1.000

 Number of electrons:                                                         90
 Number of occupied orbitals:                                                 45
 Number of molecular orbitals:                                               380

 Number of orbital functions:                                                380
 Number of independent orbital functions:                                    380


 SCF WAVEFUNCTION OPTIMIZATION

  Step     Update method      Time    Convergence         Total energy    Change
  ------------------------------------------------------------------------------

  HFX_MEM_INFO| Est. max. program size before HFX [MiB]:                     771
  HFX_MEM_INFO| Number of cart. primitive ERI's calculated:         356837784730
  HFX_MEM_INFO| Number of sph. ERI's calculated:                      3014128455
  HFX_MEM_INFO| Number of sph. ERI's stored in-core:                  3014128455
  HFX_MEM_INFO| Number of sph. ERI's stored on disk:                           0
  HFX_MEM_INFO| Number of sph. ERI's calculated on the fly:                    0
  HFX_MEM_INFO| Total memory consumption ERI's RAM [MiB]:                  10616
  HFX_MEM_INFO| Whereof max-vals [MiB]:                                        6
  HFX_MEM_INFO| Total compression factor ERI's RAM:                         2.17
  HFX_MEM_INFO| Total memory consumption ERI's disk [MiB]:                     0
  HFX_MEM_INFO| Total compression factor ERI's disk:                        0.00
  HFX_MEM_INFO| Size of density/Fock matrix [MiB]:                             0
  HFX_MEM_INFO| Size of buffers [MiB]:                                        24
  HFX_MEM_INFO| Est. max. program size after HFX  [MiB]:                    1336

     1 NoMix/Diag. 0.10E+00   31.9     7.16949575     -1140.8239559154 -1.14E+03
     2 Broy./Diag. 0.10E+00    1.2     0.50895728     -1132.6914525296  8.13E+00
     3 Broy./Diag. 0.10E+00    0.9     0.12522125     -1131.4184038805  1.27E+00
     4 Broy./Diag. 0.10E+00    0.9     0.85160934     -1134.2765682118 -2.86E+00
     5 Broy./Diag. 0.10E+00    0.9     0.03614390     -1136.8542654425 -2.58E+00
     6 Broy./Diag. 0.10E+00    0.9     0.01879192     -1137.2170264326 -3.63E-01
     7 Broy./Diag. 0.10E+00    0.9     0.13117898     -1137.0552148317  1.62E-01
     8 Broy./Diag. 0.10E+00    0.9     0.03503953     -1137.6041437640 -5.49E-01
     9 Broy./Diag. 0.10E+00    0.9     0.02519048     -1138.2404773337 -6.36E-01
    10 Broy./Diag. 0.10E+00    0.9     0.19591493     -1138.5118241009 -2.71E-01
    11 Broy./Diag. 0.10E+00    0.9     0.05468754     -1138.7095939378 -1.98E-01
    12 Broy./Diag. 0.10E+00    0.9     0.01194558     -1138.8093954691 -9.98E-02
    13 Broy./Diag. 0.10E+00    0.9     0.00339378     -1138.8359241909 -2.65E-02
    14 Broy./Diag. 0.10E+00    0.9     0.07634000     -1138.9159842873 -8.01E-02
    15 Broy./Diag. 0.10E+00    0.9     0.03417533     -1138.7828179581  1.33E-01
    16 Broy./Diag. 0.10E+00    0.9     0.01434664     -1138.5293119215  2.54E-01
    17 Broy./Diag. 0.10E+00    0.9     0.01302854     -1138.4641187883  6.52E-02
    18 Broy./Diag. 0.10E+00    0.9     0.01086685     -1138.4170043824  4.71E-02
    19 Broy./Diag. 0.10E+00    0.9     0.03168303     -1138.3187506374  9.83E-02
    20 Broy./Diag. 0.10E+00    0.9     0.01414145     -1138.2717379629  4.70E-02
    21 Broy./Diag. 0.10E+00    0.8     0.02893167     -1138.2556064751  1.61E-02
    22 Broy./Diag. 0.10E+00    0.9     0.01595991     -1138.2397147281  1.59E-02
    23 Broy./Diag. 0.10E+00    1.0     0.01711900     -1138.1627691321  7.69E-02
    24 Broy./Diag. 0.10E+00    0.9     0.01025359     -1138.0832560797  7.95E-02
    25 Broy./Diag. 0.10E+00    0.9     0.01330925     -1138.0587875210  2.45E-02
    26 Broy./Diag. 0.10E+00    0.9     0.01090528     -1138.0785937621 -1.98E-02
    27 Broy./Diag. 0.10E+00    0.9     0.00654256     -1138.0857758074 -7.18E-03
    28 Broy./Diag. 0.10E+00    0.9     0.00696710     -1138.1121687944 -2.64E-02
    29 Broy./Diag. 0.10E+00    0.9     0.00370221     -1138.1333380602 -2.12E-02
    30 Broy./Diag. 0.10E+00    0.9     0.00342106     -1138.1548337590 -2.15E-02
    31 Broy./Diag. 0.10E+00    0.9     0.00188287     -1138.1704276972 -1.56E-02
    32 Broy./Diag. 0.10E+00    0.9     0.00268886     -1138.1632358291  7.19E-03
    33 Broy./Diag. 0.10E+00    0.9     0.00309960     -1138.1549196442  8.32E-03
    34 Broy./Diag. 0.10E+00    0.9     0.00267035     -1138.1493346993  5.58E-03
    35 Broy./Diag. 0.10E+00    0.9     0.00362561     -1138.1494461446 -1.11E-04
    36 Broy./Diag. 0.10E+00    0.9     0.00155701     -1138.1509992761 -1.55E-03
    37 Broy./Diag. 0.10E+00    0.9     0.00370594     -1138.1441638225  6.84E-03
    38 Broy./Diag. 0.10E+00    0.9     0.00250102     -1138.1381358275  6.03E-03
    39 Broy./Diag. 0.10E+00    1.0     0.00033498     -1138.1384987453 -3.63E-04
    40 Broy./Diag. 0.10E+00    0.9     0.00162382     -1138.1400072207 -1.51E-03
    41 Broy./Diag. 0.10E+00    0.9     0.00068633     -1138.1411366298 -1.13E-03
    42 Broy./Diag. 0.10E+00    0.9     0.00065029     -1138.1400046201  1.13E-03
    43 Broy./Diag. 0.10E+00    0.9     0.00128070     -1138.1392043993  8.00E-04
    44 Broy./Diag. 0.10E+00    0.9     0.00098539     -1138.1381618081  1.04E-03
    45 Broy./Diag. 0.10E+00    0.9     0.00026393     -1138.1378184056  3.43E-04
    46 Broy./Diag. 0.10E+00    1.0     0.00251252     -1138.1383853717 -5.67E-04
    47 Broy./Diag. 0.10E+00    1.0     0.00107058     -1138.1394016706 -1.02E-03
    48 Broy./Diag. 0.10E+00    1.1     0.00091182     -1138.1399038286 -5.02E-04
    49 Broy./Diag. 0.10E+00    1.0     0.00029103     -1138.1401755063 -2.72E-04
    50 Broy./Diag. 0.10E+00    0.9     0.00014569     -1138.1401513987  2.41E-05
    51 Broy./Diag. 0.10E+00    0.9     0.00025812     -1138.1403087668 -1.57E-04
    52 Broy./Diag. 0.10E+00    0.9     0.00022449     -1138.1404931440 -1.84E-04
    53 Broy./Diag. 0.10E+00    0.9     0.00065318     -1138.1402855157  2.08E-04
    54 Broy./Diag. 0.10E+00    0.9     0.00017481     -1138.1403479517 -6.24E-05
    55 Broy./Diag. 0.10E+00    1.0     0.00024402     -1138.1407301855 -3.82E-04
    56 Broy./Diag. 0.10E+00    1.0     0.00011932     -1138.1407764516 -4.63E-05
    57 Broy./Diag. 0.10E+00    0.9     0.00009969     -1138.1406162106  1.60E-04
    58 Broy./Diag. 0.10E+00    0.9     0.00009453     -1138.1401463306  4.70E-04
    59 Broy./Diag. 0.10E+00    0.9     0.00021607     -1138.1395675441  5.79E-04
    60 Broy./Diag. 0.10E+00    0.9     0.00006391     -1138.1393534310  2.14E-04
    61 Broy./Diag. 0.10E+00    1.0     0.00023638     -1138.1396276295 -2.74E-04
    62 Broy./Diag. 0.10E+00    0.9     0.00004725     -1138.1399353173 -3.08E-04
    63 Broy./Diag. 0.10E+00    0.9     0.00002800     -1138.1400118431 -7.65E-05
    64 Broy./Diag. 0.10E+00    0.9     0.00005579     -1138.1399916145  2.02E-05
    65 Broy./Diag. 0.10E+00    0.9     0.00003234     -1138.1399584037  3.32E-05
    66 Broy./Diag. 0.10E+00    0.9     0.00004498     -1138.1399562834  2.12E-06
    67 Broy./Diag. 0.10E+00    0.9     0.00001581     -1138.1398903218  6.60E-05
    68 Broy./Diag. 0.10E+00    0.9     0.00004390     -1138.1399036322 -1.33E-05
    69 Broy./Diag. 0.10E+00    0.9     0.00001600     -1138.1399783459 -7.47E-05
    70 Broy./Diag. 0.10E+00    0.9     0.00002331     -1138.1399396102  3.87E-05
    71 Broy./Diag. 0.10E+00    0.9     0.00003738     -1138.1398621466  7.75E-05
    72 Broy./Diag. 0.10E+00    0.9     0.00002117     -1138.1398453246  1.68E-05
    73 Broy./Diag. 0.10E+00    0.9     0.00000699     -1138.1398248801  2.04E-05
    74 Broy./Diag. 0.10E+00    0.9     0.00002195     -1138.1398479136 -2.30E-05
    75 Broy./Diag. 0.10E+00    0.9     0.00001207     -1138.1398544844 -6.57E-06
    76 Broy./Diag. 0.10E+00    0.9     0.00002454     -1138.1398434390  1.10E-05
    77 Broy./Diag. 0.10E+00    0.9     0.00000327     -1138.1398716961 -2.83E-05
    78 Broy./Diag. 0.10E+00    0.9     0.00001555     -1138.1398671078  4.59E-06
    79 Broy./Diag. 0.10E+00    0.9     0.00000520     -1138.1398437689  2.33E-05
    80 Broy./Diag. 0.10E+00    0.9     0.00000810     -1138.1398436696  9.93E-08
    81 Broy./Diag. 0.10E+00    0.9     0.00000323     -1138.1398481741 -4.50E-06
    82 Broy./Diag. 0.10E+00    0.9     0.00000154     -1138.1398469404  1.23E-06
    83 Broy./Diag. 0.10E+00    0.9     0.00000179     -1138.1398427800  4.16E-06
    84 Broy./Diag. 0.10E+00    0.9     0.00000577     -1138.1398351074  7.67E-06
    85 Broy./Diag. 0.10E+00    0.9     0.00000268     -1138.1398336948  1.41E-06
    86 Broy./Diag. 0.10E+00    0.9     0.00000030     -1138.1398369586 -3.26E-06

  *** SCF run converged in    86 steps ***


  Electronic density on regular grids:        -58.2200676068       31.7799323932
  Core density on regular grids:               90.0000000000       -0.0000000000
  Hard and soft densities (Lebedev):         -474.2608738824     -442.4809421501
  Total Rho_soft + Rho1_hard - Rho1_soft      -89.9999993391
  Total charge density (r-space):               0.0000006609
  Total Rho_soft + Rho0_soft (g-space):         0.0000010642

  Overlap energy of the core charge distribution:               0.00001069192990
  Self energy of the core charge distribution:               -625.44640912931175
  Core Hamiltonian energy:                                   -511.18338902718762
  Hartree energy:                                             186.41434382602020
  Exchange-correlation energy:                                -19.89978964988834
  Hartree-Fock Exchange energy:                               -24.25462758814797

  GAPW| Exc from hard and soft atomic rho1:                   -55.79924722469561
  GAPW| local Eh = 1 center integrals:                        -87.97072885734283

  Total energy:                                             -1138.13983695862407

 !-----------------------------------------------------------------------------!
                     Mulliken Population Analysis

 #  Atom  Element  Kind  Atomic population                           Net charge
       1     S        1         16.468574                             -0.468574
       2     C        2          6.021420                             -0.021420
       3     H        3          0.830584                              0.169416
       4     H        3          0.886083                              0.113917
       5     S        1         16.468723                             -0.468723
       6     N        4          8.021101                             -1.021101
       7     N        4          8.022088                             -1.022088
       8     C        2          5.653911                              0.346089
       9     C        2          5.776077                              0.223923
      10     C        2          5.776704                              0.223296
      11     C        2          4.964025                              1.035975
      12     C        2          6.021636                             -0.021636
      13     H        3          0.819543                              0.180457
      14     H        3          0.866865                              0.133135
      15     H        3          0.829663                              0.170337
      16     H        3          0.885886                              0.114114
      17     H        3          0.868313                              0.131687
      18     H        3          0.818804                              0.181196
 # Total charge                             90.000000                  0.000000

 !-----------------------------------------------------------------------------!

 !-----------------------------------------------------------------------------!
                           Hirshfeld Charges

  #Atom  Element  Kind  Ref Charge     Population                    Net charge
      1       S      1      16.000         16.758                        -0.758
      2       C      2       6.000          7.175                        -1.175
      3       H      3       1.000          0.510                         0.490
      4       H      3       1.000          0.504                         0.496
      5       S      1      16.000         16.759                        -0.759
      6       N      4       7.000          7.117                        -0.117
      7       N      4       7.000          7.117                        -0.117
      8       C      2       6.000          5.337                         0.663
      9       C      2       6.000          6.412                        -0.412
     10       C      2       6.000          6.412                        -0.412
     11       C      2       6.000          5.712                         0.288
     12       C      2       6.000          7.175                        -1.175
     13       H      3       1.000          0.491                         0.509
     14       H      3       1.000          0.501                         0.499
     15       H      3       1.000          0.510                         0.490
     16       H      3       1.000          0.503                         0.497
     17       H      3       1.000          0.501                         0.499
     18       H      3       1.000          0.491                         0.509

  Total Charge                                                            0.015
 !-----------------------------------------------------------------------------!
  
 -------------------------------------------------------------------------------
 -                                                                             -
 -                          BANDSTRUCTURE CALCULATION                          -
 -                                                                             -
 -------------------------------------------------------------------------------
  
 Number of occupied molecular orbitals (MOs) = Number of occupied bands       45
 Number of unoccupied (= virtual) MOs = Number of unoccupied bands           335
 Number of Gaussian basis functions for MOs                                  380
 K-point mesh for the density of states (DOS) and the self-energy      1   1   1
  
 -------------------------------------------------------------------------------
 -                                                                             -
 -                                GW CALCULATION                               -
 -                                                                             -
 -------------------------------------------------------------------------------
  
 Input: Number of time/freq. points                                           30
 Input: ω_max for fitting Σ(iω) (eV)                                        10.0
 Input: Filter threshold for sparse tensor operations                    1.0E-11
 Input: Apply Hedin shift                                                      F
  
 Number of auxiliary Gaussian basis functions for χ, ε, W                    906
 Cutoff radius for the truncated Coulomb operator in Σ^x:               2645.9 Å
 Cutoff radius for the truncated Coulomb operator in RI metric:            7.0 Å
 Regularization parameter of RI                                          1.0E-02
 Regularization parameter of minimax grids                               1.0E-06
 Lattice sum size for V(k):                                                    3
  
 K-point mesh 1 for χ, ε, W                                            1   1   1
 K-point mesh 2 for χ, ε, W (for k-point extrapolation of W)           1   1   1
 Approximate the k-point extrapolation                                         F
 Group size for tensor operations                                            192
 
 Computed 3-center integrals (µν|P), execution time                        0.3 s
 Percentage of non-zero (µν|P)                                         100.000 %
 Max. distance between µ,ν in non-zero (µν|P)                              6.3 A
 Required memory if storing all 3-center integrals (µν|P)                   1 GB
 
 Number of i and j atoms in M_λνP(τ), N_νλQ(τ):                              110
 Number of inner loop atoms for µ in M_λνP = sum_µ (µν|P) G_µλ                18
 
 SCF direct band gap (eV)                                                   4.06
 Max. SCF eigval diff. (eV)                                             56819.68
 E-Range for minimax grid                                               13995.04
 Number of Padé parameters for analytic continuation:                          5
 
 Computed χ(iτ,k=0) for time point            1 / 30,    Execution time    0.5 s
 Computed χ(iτ,k=0) for time point            2 / 30,    Execution time    0.5 s
 Computed χ(iτ,k=0) for time point            3 / 30,    Execution time    0.4 s
 Computed χ(iτ,k=0) for time point            4 / 30,    Execution time    0.4 s
 Computed χ(iτ,k=0) for time point            5 / 30,    Execution time    0.4 s
 Computed χ(iτ,k=0) for time point            6 / 30,    Execution time    0.4 s
 Computed χ(iτ,k=0) for time point            7 / 30,    Execution time    0.4 s
 Computed χ(iτ,k=0) for time point            8 / 30,    Execution time    0.4 s
 Computed χ(iτ,k=0) for time point            9 / 30,    Execution time    0.4 s
 Computed χ(iτ,k=0) for time point           10 / 30,    Execution time    0.4 s
 Computed χ(iτ,k=0) for time point           11 / 30,    Execution time    0.4 s
 Computed χ(iτ,k=0) for time point           12 / 30,    Execution time    0.4 s
 Computed χ(iτ,k=0) for time point           13 / 30,    Execution time    0.4 s
 Computed χ(iτ,k=0) for time point           14 / 30,    Execution time    0.4 s
 Computed χ(iτ,k=0) for time point           15 / 30,    Execution time    0.4 s
 Computed χ(iτ,k=0) for time point           16 / 30,    Execution time    0.3 s
 Computed χ(iτ,k=0) for time point           17 / 30,    Execution time    0.4 s
 Computed χ(iτ,k=0) for time point           18 / 30,    Execution time    0.4 s
 Computed χ(iτ,k=0) for time point           19 / 30,    Execution time    0.4 s
 Computed χ(iτ,k=0) for time point           20 / 30,    Execution time    0.4 s
 Computed χ(iτ,k=0) for time point           21 / 30,    Execution time    0.4 s
 Computed χ(iτ,k=0) for time point           22 / 30,    Execution time    0.4 s
 Computed χ(iτ,k=0) for time point           23 / 30,    Execution time    0.4 s
 Computed χ(iτ,k=0) for time point           24 / 30,    Execution time    0.4 s
 Computed χ(iτ,k=0) for time point           25 / 30,    Execution time    0.4 s
 Computed χ(iτ,k=0) for time point           26 / 30,    Execution time    0.4 s
 Computed χ(iτ,k=0) for time point           27 / 30,    Execution time    0.3 s
 Computed χ(iτ,k=0) for time point           28 / 30,    Execution time    0.5 s
 Computed χ(iτ,k=0) for time point           29 / 30,    Execution time    0.4 s
 Computed χ(iτ,k=0) for time point           30 / 30,    Execution time    0.4 s
 
 Computed W(iτ,k) for k-point batch           1 /  1,    Execution time    6.0 s
 
 Computed Σ^x(k=0),                                      Execution time    0.5 s
 
 Computed Σ^c(iτ,k=0) for time point          1 / 30,    Execution time    0.6 s
 Computed Σ^c(iτ,k=0) for time point          2 / 30,    Execution time    0.7 s
 Computed Σ^c(iτ,k=0) for time point          3 / 30,    Execution time    0.6 s
 Computed Σ^c(iτ,k=0) for time point          4 / 30,    Execution time    0.7 s
 Computed Σ^c(iτ,k=0) for time point          5 / 30,    Execution time    0.6 s
 Computed Σ^c(iτ,k=0) for time point          6 / 30,    Execution time    0.6 s
 Computed Σ^c(iτ,k=0) for time point          7 / 30,    Execution time    0.6 s
 Computed Σ^c(iτ,k=0) for time point          8 / 30,    Execution time    0.6 s
 Computed Σ^c(iτ,k=0) for time point          9 / 30,    Execution time    0.6 s
 Computed Σ^c(iτ,k=0) for time point         10 / 30,    Execution time    0.6 s
 Computed Σ^c(iτ,k=0) for time point         11 / 30,    Execution time    0.6 s
 Computed Σ^c(iτ,k=0) for time point         12 / 30,    Execution time    0.6 s
 Computed Σ^c(iτ,k=0) for time point         13 / 30,    Execution time    0.6 s
 Computed Σ^c(iτ,k=0) for time point         14 / 30,    Execution time    0.6 s
 Computed Σ^c(iτ,k=0) for time point         15 / 30,    Execution time    0.6 s
 Computed Σ^c(iτ,k=0) for time point         16 / 30,    Execution time    0.6 s
 Computed Σ^c(iτ,k=0) for time point         17 / 30,    Execution time    0.7 s
 Computed Σ^c(iτ,k=0) for time point         18 / 30,    Execution time    0.6 s
 Computed Σ^c(iτ,k=0) for time point         19 / 30,    Execution time    0.6 s
 Computed Σ^c(iτ,k=0) for time point         20 / 30,    Execution time    0.7 s
 Computed Σ^c(iτ,k=0) for time point         21 / 30,    Execution time    0.6 s
 Computed Σ^c(iτ,k=0) for time point         22 / 30,    Execution time    0.6 s
 Computed Σ^c(iτ,k=0) for time point         23 / 30,    Execution time    0.6 s
 Computed Σ^c(iτ,k=0) for time point         24 / 30,    Execution time    0.6 s
 Computed Σ^c(iτ,k=0) for time point         25 / 30,    Execution time    0.6 s
 Computed Σ^c(iτ,k=0) for time point         26 / 30,    Execution time    0.6 s
 Computed Σ^c(iτ,k=0) for time point         27 / 30,    Execution time    0.6 s
 Computed Σ^c(iτ,k=0) for time point         28 / 30,    Execution time    0.6 s
 Computed Σ^c(iτ,k=0) for time point         29 / 30,    Execution time    0.6 s
 Computed Σ^c(iτ,k=0) for time point         30 / 30,    Execution time    0.6 s
 
 Sparsity of Σ^c(iτ,k=0): Percentage of skipped atom pairs:                0.0 %

 
 SCF valence band maximum (eV):                                           -5.601
 SCF conduction band minimum (eV):                                        -1.541
 SCF indirect band gap (eV):                                               4.060
 SCF direct band gap (eV):                                                 4.060
 
 G0W0 valence band maximum (eV):                                          -6.814
 G0W0 conduction band minimum (eV):                                        0.234
 G0W0 indirect band gap (eV):                                              7.049
 G0W0 direct band gap (eV):                                                7.049
 
 Hartree-Fock with SCF orbitals valence band maximum (eV):                -7.683
 Hartree-Fock with SCF orbitals conduction band minimum (eV)               1.485
 Hartree-Fock with SCF orbitals indirect band gap (eV):                    9.168
 Hartree-Fock with SCF orbitals direct band gap (eV):                      9.168

 ENERGY| Total FORCE_EVAL ( QS ) energy [hartree]          -1138.139836958624073

 -------------------------------------------------------------------------------
 -                                                                             -
 -                                DBCSR STATISTICS                             -
 -                                                                             -
 -------------------------------------------------------------------------------
 COUNTER                                    TOTAL       BLAS       SMM       ACC
 flops     9 x    34 x    28             11789568     100.0%      0.0%      0.0%     
 flops    34 x     9 x    28             11789568     100.0%      0.0%      0.0%     
 flops     9 x     9 x    28             14043456     100.0%      0.0%      0.0%     
 flops    34 x    34 x    28             16701888     100.0%      0.0%      0.0%     
 flops    34 x    30 x    28             34386240     100.0%      0.0%      0.0%     
 flops     9 x    30 x    28             41610240     100.0%      0.0%      0.0%     
 flops    30 x     9 x    28             41610240     100.0%      0.0%      0.0%     
 flops    30 x    34 x    28             44210880     100.0%      0.0%      0.0%     
 flops     9 x    34 x    32            148211712     100.0%      0.0%      0.0%     
 flops    34 x     9 x    32            148211712     100.0%      0.0%      0.0%     
 flops    30 x    30 x    28            156038400     100.0%      0.0%      0.0%     
 flops     9 x     9 x    32            176546304     100.0%      0.0%      0.0%     
 flops    34 x    34 x    32            209966592     100.0%      0.0%      0.0%     
 flops    34 x    30 x    32            432284160     100.0%      0.0%      0.0%     
 flops     9 x    30 x    32            523100160     100.0%      0.0%      0.0%     
 flops    30 x     9 x    32            523100160     100.0%      0.0%      0.0%     
 flops    30 x    34 x    32            555793920     100.0%      0.0%      0.0%     
 flops    30 x    30 x    32           1961625600     100.0%      0.0%      0.0%     
 flops inhomo. stacks                           0       0.0%      0.0%      0.0%
 flops total                         5.051021E+09     100.0%      0.0%      0.0%
 flops max/rank                    176.472000E+06     100.0%      0.0%      0.0%
 matmuls inhomo. stacks                         0       0.0%      0.0%      0.0%
 matmuls total                             176472     100.0%      0.0%      0.0%
 number of processed stacks                175440     100.0%      0.0%      0.0%
 average stack size                                     1.0       0.0       0.0
 marketing flops                     1.117656E+09
 -------------------------------------------------------------------------------
 # multiplications                             86
 max memory usage/rank              19.022250E+09
 # max total images/rank                        3
 # max 3D layers                                1
 # MPI messages exchanged                  726528
 MPI messages size (bytes):
  total size                         2.980416E+09
  min size                           0.000000E+00
  max size                          23.040000E+03
  average size                       4.102273E+03
 MPI breakdown and total messages size (bytes):
             size <=      128              430344                        0
       128 < size <=     8192              164260                796626944
      8192 < size <=    32768              131924               2183789056
     32768 < size <=   131072                   0                        0
    131072 < size <=  4194304                   0                        0
   4194304 < size <= 16777216                   0                        0
  16777216 < size                               0                        0
 -------------------------------------------------------------------------------

 *** WARNING in dbcsr_mm.F:301 :: Using a non-square number of MPI ranks ***
 *** might lead to poor performance. Used ranks: 192 Suggested: 196 400  ***

 -------------------------------------------------------------------------------
 -                                                                             -
 -                      DBCSR MESSAGE PASSING PERFORMANCE                      -
 -                                                                             -
 -------------------------------------------------------------------------------
 ROUTINE             CALLS      AVE VOLUME [Bytes]
 MP_Bcast               19                     12.
 MP_Allreduce          572                     10.
 MP_Alltoall          5830                 111365.
 MP_ISend             8256                   3698.
 MP_IRecv             8256                   3286.
 -------------------------------------------------------------------------------

 -------------------------------------------------------------------------------
 -                                                                             -
 -                                DBM STATISTICS                               -
 -                                                                             -
 -------------------------------------------------------------------------------
    M  x    N  x    K                                          COUNT     PERCENT
    ?  x    ?  x    ?                                         120764      50.10%
   ??  x   ??  x  ???                                          12898       5.35%
 >999  x   ??  x   ??                                          12100       5.02%
   ??  x  ???  x   ??                                          10280       4.26%
 >999  x    ?  x   ??                                           9680       4.02%
 >999  x   ??  x    ?                                           9680       4.02%
   ??  x   ??  x >999                                           8020       3.33%
 >999  x    ?  x    ?                                           7744       3.21%
  ???  x   ??  x   ??                                           6050       2.51%
    ?  x   ??  x >999                                           4880       2.02%
   ??  x    ?  x >999                                           4880       2.02%
   ??  x   ??  x   ??                                           4864       2.02%
  ???  x    ?  x   ??                                           4840       2.01%
  ???  x   ??  x    ?                                           4840       2.01%
    ?  x    ?  x >999                                           3904       1.62%
  ???  x    ?  x    ?                                           3872       1.61%
    ?  x   ??  x  ???                                           2440       1.01%
   ??  x    ?  x  ???                                           2440       1.01%
   ??  x  ???  x  ???                                           2440       1.01%
   ??  x >999  x   ??                                           1984       0.82%
    ?  x    ?  x  ???                                           1952       0.81%
   ??  x >999  x  ???                                            248       0.10%
   ??  x  ???  x >999                                            240       0.10%
 -------------------------------------------------------------------------------

 -------------------------------------------------------------------------------
 -                                                                             -
 -                                GRID STATISTICS                              -
 -                                                                             -
 -------------------------------------------------------------------------------
 LP    KERNEL             BACKEND                              COUNT     PERCENT
 4     collocate ortho    CPU                                  11223      11.47%
 4     integrate ortho    CPU                                  11223      11.47%
 3     collocate ortho    CPU                                  10614      10.85%
 3     integrate ortho    CPU                                  10614      10.85%
 1     collocate ortho    CPU                                   9657       9.87%
 1     integrate ortho    CPU                                   9657       9.87%
 6     collocate ortho    CPU                                   6177       6.31%
 6     integrate ortho    CPU                                   6177       6.31%
 2     collocate ortho    CPU                                   5394       5.51%
 2     integrate ortho    CPU                                   5394       5.51%
 0     collocate ortho    CPU                                   4263       4.36%
 0     integrate ortho    CPU                                   4263       4.36%
 2     collocate general  CPU                                   1566       1.60%
 2     integrate general  CPU                                   1566       1.60%
 0     collocate general  CPU                                     18       0.02%
 0     integrate general  CPU                                     18       0.02%
 -------------------------------------------------------------------------------

 -------------------------------------------------------------------------------
 -                                                                             -
 -                          OFFLOAD MEMPOOL STATISTICS                         -
 -                                                                             -
 -------------------------------------------------------------------------------
 Memory consumption                Number of allocations  Used [MiB]  Size [MiB]
 Host                                                142          73         120
 -------------------------------------------------------------------------------

 MEMORY| Estimated peak process memory [MiB]                                1697

 -------------------------------------------------------------------------------
 ----                             MULTIGRID INFO                            ----
 -------------------------------------------------------------------------------
 count for grid        1:       30253517          cutoff [a.u.]          250.00
 count for grid        2:        4474092          cutoff [a.u.]           83.33
 count for grid        3:        3698776          cutoff [a.u.]           27.78
 count for grid        4:        1383858          cutoff [a.u.]            9.26
 total gridlevel count  :       39810243

 -------------------------------------------------------------------------------
 -                                                                             -
 -                         MESSAGE PASSING PERFORMANCE                         -
 -                                                                             -
 -------------------------------------------------------------------------------

 ROUTINE             CALLS      AVE VOLUME [Bytes]
 MP_Group             3017
 MP_Bcast             9070                 156880.
 MP_Allreduce        27764                  17790.
 MP_Sync              3974
 MP_Alltoall          4620                7498592.
 MP_SendRecv         33234                  69520.
 MP_ISendRecv        66850                  45323.
 MP_Wait            100889
 MP_comm_split        1620
 MP_ISend            50161                 248408.
 MP_IRecv            47279                 262575.
 -------------------------------------------------------------------------------


 -------------------------------------------------------------------------------
 -                                                                             -
 -                           R E F E R E N C E S                               -
 -                                                                             -
 -------------------------------------------------------------------------------
 
 CP2K version 2025.2 (Development Version), the CP2K developers group (2025).
 CP2K is freely available from https://www.cp2k.org/ .
 
 M. Graml, K. Zollner, D. Hernangómez-Pérez, P. E. Faria Junior, J. Wilhelm.
 J. Chem. Theory Comput. 20, 2202-2208 (2024).
 Low-scaling GW algorithm applied to twisted transition-metal dichalcogenide 
 heterobilayers.
 https://doi.org/10.1021/acs.jctc.3c01230

 T. D. Kuehne, M. Iannuzzi, M. Del Ben, V. V. Rybkin, P. Seewald, F. Stein, T. 
 Laino, R. Z. Khaliullin, O. Schuett, F. Schiffmann, D. Golze, J. Wilhelm, S. 
 Chulkov, M. H. Bani-Hashemian, V. Weber, U. Borstnik, M. Taillefumier, A. S. 
 Jakobovits, A. Lazzaro, H. Pabst, T. Mueller, R. Schade, M. Guidon, S. 
 Andermatt, N. Holmberg, G. K. Schenter, A. Hehn, A. Bussy, F. Belleflamme, G. 
 Tabacchi, A. Gloess, M. Lass, I. Bethune, C. J. Mundy, C. Plessl, M. Watkins, 
 J. VandeVondele, M. Krack, J. Hutter.
 J. Chem. Phys. 152, 194103 (2020).
 CP2K: An electronic structure and molecular dynamics software package - 
 Quickstep: Efficient and accurate electronic structure calculations.
 https://doi.org/10.1063/5.0007045

 O. Schuett, P. Messmer, J. Hutter, J. VandeVondele.
 Electronic Structure Calculations on Graphics Processing Units, 173-190 (2016).
 GPU-Accelerated Sparse Matrix-Matrix Multiplication for Linear Scaling Density 
 Functional Theory.
 https://doi.org/10.1002/9781118670712.ch8

 A. Heinecke, G. Henry, M. Hutchinson, H. Pabst.
 Proceedings of Intl. Supercomputing Conference, 981-991 (2016).
 LIBXSMM: Accelerating Small Matrix Multiplications by Runtime Code Generation.
 https://doi.org/10.1109/SC.2016.83

 J. Hutter, M. Iannuzzi, F. Schiffmann, J. VandeVondele.
 WIREs Comput Mol Sci. 4, 15-25 (2014).
 CP2K: atomistic simulations of condensed matter systems.
 https://doi.org/10.1002/wcms.1159

 U. Borstnik, J. VandeVondele, V. Weber, J. Hutter.
 Parallel Comput. 40, 47-58 (2014).
 Sparse matrix multiplication: The distributed block-compressed sparse row 
 library.
 https://doi.org/10.1016/j.parco.2014.03.012

 A. Marek, V. Blum, R. Johanni, V. Havu, B. Lang, T. Auckenthaler, A. Heinecke, 
 H. Bungartz, H. Lederer.
 J. Phys. Condens. Matter 26, 213201 (2014).
 The ELPA library: scalable parallel eigenvalue solutions for electronic 
 structure theory and computational science.
 https://doi.org/10.1088/0953-8984/26/21/213201

 M. Guidon, J. Hutter, J. VandeVondele.
 J. Chem. Theory Comput. 5, 3010-3021 (2009).
 Robust Periodic Hartree-Fock Exchange for Large-Scale Simulations Using 
 Gaussian Basis Sets.
 https://doi.org/10.1021/ct900494g

 M. Guidon, F. Schiffmann, J. Hutter, J. VandeVondele.
 J. Chem. Phys. 128, 214104 (2008).
 Ab initio molecular dynamics using hybrid density functionals.
 https://doi.org/10.1063/1.2931945

 L. Genovese, T. Deutsch, S. Goedecker.
 J. Chem. Phys. 127, 054704 (2007).
 Efficient and accurate three-dimensional Poisson solver for surface problems.
 https://doi.org/10.1063/1.2754685

 J. VandeVondele, J. Hutter.
 J. Chem. Phys. 127, 114105 (2007).
 Gaussian basis sets for accurate calculations on molecular systems in gas and 
 condensed phases.
 https://doi.org/10.1063/1.2770708

 L. Genovese, T. Deutsch, A. Neelov, S. Goedecker, G. Beylkin.
 J. Chem. Phys. 125, 074105 (2006).
 Efficient solution of Poisson's equation with free boundary conditions.
 https://doi.org/10.1063/1.2335442

 M. Frigo, S. G. Johnson.
 Proc. IEEE 93, 216-231 (2005).
 The design and implementation of FFTW3.
 https://doi.org/10.1109/JPROC.2004.840301

 M. Krack, M. Parrinello.
 Phys. Chem. Chem. Phys. 2, 2105-2112 (2000).
 All-electron ab-initio molecular dynamics.
 https://doi.org/10.1039/b001167n

 G. Lippert, J. Hutter, M. Parrinello.
 Theor. Chem. Acc. 103, 124-140 (1999).
 The Gaussian and augmented-plane-wave density functional method for ab initio 
 molecular dynamics simulations.
 https://doi.org/10.1007/s002140050523

 J. P. Perdew, K. Burke, M. Ernzerhof.
 Phys. Rev. Lett. 77, 3865-3868 (1996).
 Generalized gradient approximation made simple.
 https://doi.org/10.1103/PhysRevLett.77.3865


 -------------------------------------------------------------------------------
 -                                                                             -
 -                                T I M I N G                                  -
 -                                                                             -
 -------------------------------------------------------------------------------
 SUBROUTINE                       CALLS  ASD         SELF TIME        TOTAL TIME
                                MAXIMUM       AVERAGE  MAXIMUM  AVERAGE  MAXIMUM
 CP2K                                 1  1.0    0.012    0.026  152.798  152.805
 qs_energies                          1  2.0    0.000    0.000  152.453  152.460
 scf_env_do_scf                       1  3.0    0.000    0.000  110.036  110.041
 scf_env_do_scf_inner_loop           86  4.0    0.002    0.004  110.036  110.041
 qs_ks_build_kohn_sham_matrix        87  7.0    0.012    0.014   89.358   89.398
 qs_ks_update_qs_env                 86  5.0    0.001    0.001   88.918   88.958
 rebuild_ks_matrix                   86  6.0    0.000    0.000   88.911   88.950
 qs_energies_properties               1  3.0    0.000    0.000   39.150   39.156
 post_scf_bandstructure               1  4.0    0.000    0.000   39.150   39.156
 gw                                   1  5.0    0.000    0.000   38.998   39.000
 gw_calc_large_cell_Gamma             1  6.0    0.000    0.000   37.665   37.678
 fft_wrap_pw1pw2                   1818 10.0    0.018    0.023   32.591   33.392
 fft_wrap_pw1pw2_250               1296 11.1    0.497    0.592   30.880   31.798
 fft3d_ps                          1818 12.0    3.332    4.708   30.817   31.547
 hfx_ks_matrix                       87  8.0    0.001    0.002   30.629   30.647
 integrate_four_center               87  9.0    1.793    3.127   30.624   30.645
 mp_alltoall_z22v                  1818 14.0   26.336   26.991   26.336   26.991
 pw_poisson_solve                    87  8.0    0.124    0.186   22.218   22.239
 mp_sync                           3974 12.1   17.487   21.879   17.487   21.879
 integrate_four_center_main          87 10.0    0.042    2.334   13.777   21.791
 integrate_four_center_bin         4856 11.0   13.735   19.458   13.735   19.458
 get_Sigma_c                          1  7.0    0.001    0.001   18.499   18.500
 dbt_total                          699  9.0    0.003    0.006   18.391   18.392
 dbt_contract                       243  9.9    0.007    0.011   16.882   16.886
 dbt_tas_multiply                   486 12.4    0.001    0.001   16.638   16.641
 dbt_tas_total                      486 13.4    0.043    0.056   16.623   16.626
 qs_rho_update_rho_low               87  5.0    0.001    0.001   16.113   16.115
 calculate_rho_elec                  87  6.0    0.058    0.087   15.497   15.499
 qs_vxc_create                       87  8.0    0.001    0.002   15.130   15.343
 xc_vxc_pw_create                    86  9.0    0.089    0.128   15.129   15.341
 x_to_yz                            777 12.9    0.406    0.631   13.899   14.238
 yz_to_x                            693 13.2    0.256    0.309   13.050   13.489
 xc_pw_derive                       516 11.0    0.002    0.003   12.150   12.418
 ps_wavelet_solve                    87  9.0    2.410    3.309   11.773   11.983
 get_mat_chi_Gamma_tau                1  7.0    0.000    0.001   11.787   11.800
 contract_to_Sigma                   61  8.0    0.001    0.001   11.030   11.031
 density_rs2pw                       87  7.0    0.003    0.003   10.202   10.945
 compute_3c_integrals               152  8.6    0.002    0.003   10.714   10.716
 build_3c_integrals                 157  9.6    5.637   10.162    6.579   10.511
 xc_pw_divergence                    86 10.0    0.001    0.002    7.796    8.004
 xc_rho_set_and_dset_create          86 10.0    0.094    0.125    7.008    7.347
 sum_up_and_integrate                87  8.0    0.001    0.001    6.783    7.028
 integrate_v_rspace                  87  9.0    0.002    0.002    6.756    7.007
 mp_alltoall_d45                     88 10.0    6.382    6.930    6.382    6.930
 prepare_gapw_den                    87  8.0    0.001    0.002    6.741    6.821
 mp_alltoall_d54                     87 10.0    4.489    6.773    4.489    6.773
 get_W_MIC                            1  7.0    0.000    0.000    6.459    6.459
 compute_W_MIC                        1  8.0    0.000    0.000    6.459    6.459
 compute_3c_and_contract_W           31  8.0    0.000    0.000    6.408    6.409
 mp_waitany                       28644 11.5    5.057    6.322    5.057    6.322
 potential_pw2rs                     87 10.0    0.006    0.007    6.287    6.305
 dbt_tas_dbm                        486 14.4    0.001    0.001    6.187    6.189
 compute_fm_W_MIC_freq_j             30  9.0    0.000    0.000    5.986    5.987
 transfer_rs2pw                     436  8.4    0.007    0.011    4.952    5.639
 transfer_pw2rs                     436 10.6    0.003    0.005    5.023    5.612
 grid_collocate_task_list            87  7.0    5.051    5.486    5.051    5.486
 dbm_multiply                       486 16.4    4.577    5.461    4.577    5.461
 cp_cfm_power                        30 10.0    0.000    0.001    4.989    5.008
 cp_cfm_heevd                        32 10.8    0.000    0.000    4.940    4.968
 cp_cfm_heevd_base                   32 11.8    4.940    4.968    4.940    4.968
 mp_alltoall_d11v                  3018 10.5    3.986    4.735    3.986    4.735
 gspace_mixing                       85  5.0    0.057    0.085    4.200    4.200
 mp_sum_d                          7554  6.9    3.535    4.167    3.535    4.167
 calc_screening_functions             1 10.0    3.584    3.665    3.985    4.060
 put_rho0_on_grid                    87  9.0    0.064    0.092    3.694    3.774
 transfer_pw2rs_250                 175 11.0    0.773    0.962    2.946    3.769
 dbt_tas_create_split              1618 15.2    0.003    0.004    3.363    3.471
 dbt_tas_create_split_rows_or_c    1618 16.2    0.004    0.005    3.359    3.468
 transfer_rs2pw_250                 175 10.0    0.831    0.940    2.756    3.458
 integrate_vhg0_rspace               87  8.0    0.152    0.196    2.823    3.290
 G_times_3c                          60  8.0    0.000    0.016    2.969    2.984
 dbt_tas_mm_2                       182 15.2    0.000    0.001    2.891    2.891
 qs_scf_new_mos                      86  5.0    0.001    0.001    2.766    2.782
 dbm_redistribute                   912 14.1    2.264    2.754    2.264    2.754
 calculate_rho_atom                 348  9.0    0.387    2.735    0.387    2.735
 mp_sum_dv                        11781  8.7    2.599    2.664    2.599    2.664
 convert_to_new_pgrid              1458 14.4    0.808    1.061    2.204    2.551
 cp_fm_diag_elpa                     92  7.1    0.000    0.000    2.474    2.484
 cp_fm_diag_elpa_base                92  8.1    2.403    2.444    2.449    2.449
 eigensolver_symm                    86  6.0    0.006    0.008    2.437    2.443
 dbt_tas_estimate_result_nze        243 12.9    0.118    0.188    2.401    2.402
 init_scf_run                         1  3.0    0.000    0.000    2.307    2.308
 broyden_mixing                      85  6.0    2.115    2.188    2.201    2.267
 dbt_tas_distribution_new          1774 14.6    0.789    0.838    2.116    2.151
 calculate_vxc_atom                  87  8.0    0.028    0.230    2.135    2.135
 mp_waitall_1                     82137 12.0    1.719    2.114    1.719    2.114
 scf_env_initial_rho_setup            1  4.0    0.000    0.000    2.037    2.079
 reshape_mm_compatible              486 14.4    0.006    0.008    1.921    1.975
 change_split                       729 14.9    0.002    0.003    1.876    1.930
 dbt_tas_mm_3N                       62 15.5    0.000    0.000    1.585    1.887
 mp_sum_dm                         4783  7.7    1.683    1.873    1.683    1.873
 cp2k_distribution_to_z_slices       87  9.0    0.164    0.193    1.708    1.852
 gaVxcgb_GC                         258  9.0    0.029    1.840    0.029    1.840
 abc_contract_xsmm               153504 10.6    0.680    1.789    0.680    1.789
 mp_bcast_i                        2211 13.1    1.731    1.735    1.731    1.735
 pw_poisson_rebuild                  87  9.0    0.000    0.000    1.642    1.694
 ps_wavelet_create                    1 10.0    0.000    0.000    1.642    1.694
 RS_z_slice_distribution              1 11.0    0.103    0.112    1.642    1.694
 reshape_mm_small                   486 14.4    0.025    0.027    1.517    1.568
 fft_wrap_pw1pw2_90                 174 10.5    0.018    0.025    1.267    1.552
 transfer_rs2pw_90                   87  9.0    0.209    0.300    1.284    1.425
 fm_to_local_tensor                 152  8.0    0.002    0.002    1.415    1.421
 transfer_pw2rs_90                   87 12.0    0.172    0.216    1.149    1.370
 create_and_init_bs_env_for_gw        1  6.0    0.000    0.000    1.333    1.351
 parallel_gemm_cfm                  283 10.4    0.000    0.000    1.117    1.148
 parallel_gemm_cfm_cosma            283 11.4    1.117    1.148    1.117    1.148
 dbt_copy                           456 10.1    0.005    0.007    0.851    1.078
 parallel_gemm_fm_cosma             356  8.2    1.014    1.078    1.014    1.078
 transfer_pw2rs_30                   87 12.0    0.186    0.229    0.722    1.006
 qs_energies_init_hamiltonians        1  3.0    0.000    0.000    0.918    0.919
 xc_functional_eval                 602 10.8    0.001    0.001    0.538    0.907
 pbe_lda_eval                       602 11.8    0.537    0.906    0.537    0.906
 compute_cfm_W_ikp_freq_j            30 10.0    0.001    0.002    0.869    0.902
 build_core_hamiltonian_matrix        1  4.0    0.000    0.000    0.899    0.899
 overlap_condnum                      1  5.0    0.000    0.000    0.896    0.898
 mp_sum_l                          3140 13.7    0.698    0.888    0.698    0.888
 transfer_rs2pw_30                   87  9.0    0.339    0.368    0.771    0.885
 dbt_tas_reshape                    638 14.5    0.006    0.009    0.708    0.869
 mp_comm_split_direct              1620 17.2    0.830    0.832    0.830    0.832
 mp_waitall_2                      2978 16.0    0.668    0.830    0.668    0.830
 dbt_create_matrix                  152  9.0    0.001    0.001    0.765    0.782
 dbt_reshape                        274 10.9    0.198    0.278    0.621    0.779
 powell_optimize                 740903 11.0    0.741    0.771    0.741    0.771
 calc_pair_dist_radii                 1 10.0    0.378    0.416    0.718    0.764
 mp_comm_dup                       1379 17.6    0.636    0.753    0.636    0.753
 rs_grid_zero                       437 11.2    0.580    0.723    0.580    0.723
 dbt_distribution_new_expert        316 10.5    0.002    0.002    0.707    0.708
 dbm_reserve_blocks                2921 15.9    0.491    0.705    0.491    0.705
 dbt_tas_reserve_blocks_index      2435 15.0    0.002    0.003    0.486    0.698
 copy_dbcsr_to_fm                   280  8.3    0.003    0.003    0.656    0.698
 dbt_tas_copy                       486 13.8    0.215    0.312    0.477    0.680
 grid_integrate_task_list            87 10.0    0.084    0.679    0.084    0.679
 rs_gather_matrices                  87 10.0    0.002    0.017    0.383    0.665
 dbt_tas_mm_1N                      120 15.5    0.000    0.000    0.453    0.643
 mp_sendrecv_dv                   33234 10.0    0.507    0.640    0.507    0.640
 pw_copy                           1300 10.6    0.546    0.640    0.546    0.640
 pw_derive                          777 11.3    0.548    0.636    0.548    0.636
 dbt_tas_mm_3T                      122 15.5    0.000    0.000    0.446    0.632
 calculate_rho_atom_coeff            87  6.0    0.048    0.086    0.615    0.616
 arnoldi_conjugate_gradient           5  6.0    0.007    0.009    0.610    0.610
 dbcsr_complete_redistribute        604  9.4    0.013    0.017    0.545    0.581
 dbt_tas_replicate                  486 14.4    0.035    0.050    0.506    0.577
 mp_max_i                          1045  6.7    0.363    0.576    0.363    0.576
 dbt_tas_communicate_buffer        1124 16.5    0.011    0.019    0.439    0.556
 mp_alltoall_i                     1917 14.5    0.503    0.543    0.503    0.543
 setup_time_and_frequency_minim       1  7.0    0.000    0.000    0.521    0.539
 get_Sigma_x                          1  7.0    0.000    0.000    0.537    0.538
 compute_Sigma_x                      1  8.0    0.000    0.000    0.537    0.538
 write_matrix                        91  8.0    0.000    0.000    0.436    0.526
 pw_gather_p                        867 11.8    0.440    0.518    0.440    0.518
 mp_cart_create                    3303 14.6    0.467    0.515    0.469    0.516
 integrate_four_center_getP          87 10.0    0.014    0.017    0.454    0.483
 mp_bcast_dm                       3133  9.0    0.459    0.469    0.459    0.469
 compute_V_xc                         1  7.0    0.000    0.000    0.449    0.449
 pw_scatter_p                       951 12.1    0.392    0.449    0.392    0.449
 fm_write                           121  9.0    0.003    0.064    0.309    0.429
 dbt_communicate_buffer             274 11.9    0.002    0.003    0.290    0.407
 multiply_fm_W_MIC_time_with_Mi       2  9.0    0.000    0.000    0.399    0.399
 cp_fm_write_unformatted            126  9.9    0.312    0.362    0.315    0.397
 update_ks_atom                      87  8.0    0.033    0.066    0.355    0.392
 compute_QP_energies                  1  7.0    0.000    0.000    0.382    0.383
 pw_poisson_set                      88  9.0    0.001    0.002    0.360    0.382
 dbt_tas_reserve_blocks_templat     972 14.4    0.002    0.009    0.267    0.380
 dbcsr_sym_matrix_vector_mult      3815  7.0    0.017    0.022    0.348    0.370
 Vh_1c_gg_integrals                  87  8.0    0.009    0.356    0.365    0.369
 calculate_rho0_atom                348  9.0    0.354    0.366    0.354    0.366
 cp_fm_power                          3  8.7    0.001    0.001    0.362    0.366
 mp_alltoall_z11v                   348 13.5    0.307    0.360    0.307    0.360
 G_occ_vir                          121  8.0    0.001    0.001    0.339    0.355
 mp_alltoall_i22                    890 10.4    0.313    0.348    0.313    0.348
 fft_wrap_pw1pw2_30                 174 10.5    0.003    0.003    0.272    0.337
 pw_integral_ab_c1d_c1d_gs           87  9.0    0.111    0.122    0.237    0.332
 pw_copy_to_array                   867 11.8    0.257    0.331    0.257    0.331
 check_sparsity_3c                    1  7.0    0.000    0.000    0.322    0.322
 mp_isend_dv                      43091 12.5    0.180    0.310    0.180    0.310
 to_ikp_and_mo                       62  8.0    0.000    0.001    0.301    0.301
 fm_Gamma_ao_to_cfm_ikp_mo           62  9.0    0.000    0.000    0.285    0.289
 dbt_tas_replicate_communicate_     304 15.5    0.002    0.003    0.201    0.276
 mp_isend_dm3                      3492 11.5    0.084    0.272    0.084    0.272
 dbt_tas_reshape_buffer_fill        638 15.5    0.177    0.270    0.177    0.270
 integrate_four_center_dist_KS       87 10.0    0.014    0.019    0.259    0.259
 dbt_reserve_blocks_index           825 12.3    0.001    0.002    0.173    0.259
 mp_cart_sub                        578 10.3    0.258    0.258    0.258    0.258
 dbcsr_rep_row_to_rep_col_vec      3815  8.0    0.006    0.007    0.127    0.255
 pw_copy_from_array                 951 12.1    0.148    0.254    0.148    0.254
 dbcsr_desymmetrize_deep            286  9.3    0.004    0.005    0.220    0.247
 mp_irecv_dv                      40581 12.5    0.018    0.240    0.018    0.240
 dbt_tas_replicate_alltoall         304 15.5    0.000    0.000    0.188    0.231
 dbt_tas_reshape_buffer_obtain      638 15.5    0.124    0.164    0.181    0.223
 pw_axpy                            865  9.3    0.190    0.221    0.190    0.221
 transfer_pw2rs_10                   87 12.0    0.050    0.058    0.203    0.210
 dbt_tas_reshape_alltoall           638 15.5    0.001    0.001    0.200    0.205
 dbt_tas_reshape_communicate_bu     638 15.5    0.005    0.006    0.142    0.204
 calculate_dm_sparse                 86  6.0    0.000    0.001    0.184    0.193
 cp_dbcsr_plus_fm_fm_t               86  7.0    0.001    0.001    0.183    0.193
 dbt_tas_merge                      182 14.2    0.025    0.035    0.158    0.192
 yz_to_xz                           174 14.0    0.007    0.010    0.159    0.190
 get_l_sq_wghts_cos_tf_w_to_t         1  8.0    0.170    0.187    0.171    0.188
 cp_fm_symm                          86  7.0    0.177    0.187    0.177    0.187
 get_l_sq_wghts_cos_tf_t_to_w         1  8.0    0.176    0.186    0.176    0.186
 xz_to_yz                           174 11.0    0.005    0.007    0.161    0.185
 qs_init_subsys                       1  2.0    0.001    0.002    0.184    0.184
 get_l_sq_wghts_sin_tf_t_to_w         1  8.0    0.174    0.182    0.174    0.182
 qs_env_setup                         1  3.0    0.000    0.000    0.174    0.176
 qs_env_rebuild_pw_env                2  3.5    0.000    0.000    0.174    0.175
 pw_env_rebuild                       1  5.0    0.000    0.000    0.174    0.175
 dbm_add                            486 14.4    0.097    0.168    0.097    0.168
 integrate_four_center_load          87 10.0    0.000    0.000    0.108    0.162
 hfx_load_balance                     1 11.0    0.000    0.000    0.108    0.162
 fft_wrap_pw1pw2_10                 174 10.5    0.001    0.001    0.154    0.161
 dbt_reserve_blocks_index_array     516 12.0    0.001    0.001    0.100    0.159
 mp_rank_compare                   1818 13.0    0.147    0.157    0.147    0.157
 pw_zero                            518 10.3    0.138    0.156    0.138    0.156
 dbcsr_multiply_generic              86  8.0    0.003    0.003    0.142    0.152
 pw_grid_setup                        4  6.0    0.000    0.000    0.148    0.149
 pw_grid_setup_internal               4  7.0    0.001    0.001    0.148    0.149
 cp_cfm_geeig                         2  7.0    0.000    0.000    0.148    0.149
 dbcsr_col_vec_to_rep_row          3815  8.0    0.008    0.010    0.103    0.148
 hfx_load_balance_range               1 12.0    0.000    0.000    0.095    0.148
 transfer_rs2pw_10                   87  9.0    0.060    0.073    0.134    0.147
 cp_cfm_cholesky_decompose           35 10.7    0.133    0.138    0.133    0.138
 compute_fm_chi_Gamma_freq           30 10.0    0.000    0.000    0.123    0.138
 dbt_crop                           212 11.0    0.042    0.099    0.075    0.136
 copy_fm_to_dbcsr                   324  8.5    0.001    0.001    0.114    0.134
 dbt_tas_merge_communicate_buff     182 15.2    0.001    0.002    0.105    0.132
 dbt_create_new                     158 10.0    0.001    0.001    0.116    0.132
 cp_cfm_cholesky_invert              31 11.0    0.127    0.131    0.127    0.131
 create_qs_kind_set                   1  2.0    0.000    0.000    0.117    0.118
 read_qs_kind                         4  3.0    0.030    0.053    0.117    0.118
 build_3c_integrals_put_dbcsr      3180 10.6    0.043    0.111    0.043    0.111
 alloc_block_3c                     157 10.6    0.004    0.005    0.078    0.109
 dbt_pgrid_create_expert            320 11.5    0.001    0.001    0.101    0.103
 mp_alltoall_i11v                  2098 10.4    0.056    0.100    0.056    0.100
 dos_pdos_ldos                        1  5.0    0.000    0.000    0.092    0.096
 fill_fm_Sigma_c_Gamma_time           1  8.0    0.000    0.000    0.094    0.094
 dbcsr_add_d                       6692  7.6    0.002    0.002    0.022    0.093
 dbt_tas_mp_comm                    243 12.9    0.002    0.003    0.091    0.092
 dbcsr_add_anytype                 6692  8.6    0.004    0.017    0.020    0.091
 parser_read_line                 29908  4.0    0.003    0.003    0.087    0.089
 parser_read_line_low                42  5.0    0.001    0.014    0.085    0.087
 broadcast_input_information         42  6.0    0.004    0.004    0.084    0.086
 dbcsr_dot                          173  8.0    0.001    0.002    0.030    0.073
 rs_scatter_matrices                 87  7.0    0.001    0.001    0.014    0.070
 mp_sum_i                           648 14.2    0.059    0.069    0.059    0.069
 calculate_first_density_matrix       1  5.0    0.000    0.000    0.026    0.068
 calculate_atomic_block_dm            1  6.0    0.001    0.001    0.026    0.068
 dbt_nd_mp_comm                     152 10.0    0.000    0.000    0.065    0.067
 make_m2s                           172  9.0    0.002    0.002    0.061    0.066
 dbcsr_finalize                    9614 11.2    0.007    0.027    0.026    0.066
 multiply_cannon                     86  9.0    0.005    0.006    0.056    0.065
 create_and_init_bs_env               1  5.0    0.000    0.000    0.060    0.060
 mp_isendrecv_dv                  66468 12.0    0.026    0.059    0.026    0.059
 dbt_copy_nocomm                     30 10.0    0.023    0.039    0.040    0.059
 mp_bcast_b_src                     178  7.6    0.018    0.058    0.018    0.058
 cube_transpose_2                   174 11.0    0.002    0.002    0.033    0.057
 global_matrix_to_local_matrix      152  9.0    0.001    0.001    0.049    0.057
 pw_grid_remap                        4  8.0    0.001    0.001    0.054    0.055
 cp_fm_uplo_to_full                  95  9.1    0.035    0.055    0.035    0.055
 mp_sum_im3                           6  9.5    0.053    0.054    0.053    0.054
 vxc_of_r_new                       516  9.0    0.000    0.008    0.002    0.053
 mp_bcast_i_src                     168  7.0    0.050    0.053    0.050    0.053
 mp_irecv_dm3                      3492 11.5    0.014    0.053    0.014    0.053
 diagonalize_ks_matrix                1  6.0    0.000    0.000    0.051    0.051
 cp_fm_geeig_canon                    1  7.0    0.000    0.000    0.051    0.051
 make_images                        172 10.0    0.003    0.007    0.048    0.050
 multiply_cannon_loop                86 10.0    0.004    0.005    0.037    0.048
 local_dbt_to_global_mat             91  8.0    0.000    0.000    0.035    0.048
 mp_comm_free                      6931 13.6    0.042    0.047    0.042    0.047
 dbcsr_copy                       15984  7.6    0.014    0.035    0.025    0.047
 scale_and_distribute               174 10.0    0.032    0.046    0.032    0.046
 send_sizes_1                       152 10.0    0.000    0.000    0.035    0.044
 compute_MinvVsqrt_Vsqrt              1  9.0    0.000    0.000    0.038    0.044
 make_images_sizes                  172 11.0    0.000    0.000    0.037    0.042
 mp_alltoall_i44                    172 12.0    0.037    0.042    0.037    0.042
 mp_sum_im                           11  8.0    0.041    0.042    0.041    0.042
 scf_post_calculation_gpw             1  3.0    0.000    0.000    0.040    0.041
 mp_bcast_dv                       3815  9.0    0.029    0.040    0.029    0.040
 write_available_results              1  4.0    0.000    0.000    0.040    0.040
 write_mo_free_results                1  5.0    0.001    0.002    0.040    0.040
 write_mo_set_to_restart             86  5.0    0.001    0.006    0.010    0.038
 dbcsr_filter_anytype               731  9.8    0.001    0.002    0.006    0.037
 dbt_tas_create_new                2345 14.5    0.016    0.036    0.016    0.036
 cp_fm_redistribute_start            92  8.1    0.000    0.000    0.025    0.035
 mp_recv_dv                        3198 10.9    0.000    0.035    0.000    0.035
 cube_transpose_1                   174 14.0    0.002    0.005    0.021    0.035
 write_mo_set_low                     5  6.0    0.000    0.000    0.009    0.032
 dbcsr_iterator_start             50883  9.0    0.018    0.025    0.022    0.032
 local_matrix_to_global_matrix       91  9.0    0.000    0.000    0.020    0.032
 pw_grid_sort                         4  8.0    0.021    0.021    0.029    0.032
 cp_fm_norm                           2  6.0    0.011    0.031    0.011    0.031
 self_consistency_check              86  5.0    0.000    0.000    0.021    0.030
 cp_sm_mix                           86  6.0    0.000    0.001    0.021    0.030
 mp_max_d                            93  7.0    0.021    0.030    0.021    0.030
 multiply_cannon_metrocomm3        2064 11.0    0.002    0.002    0.017    0.030
 dbcsr_merge_all                   7970 12.3    0.010    0.023    0.013    0.030
 mp_bcast_am_src                     42  7.0    0.025    0.027    0.028    0.030
 RI_2c_integral_mat                   4  9.8    0.000    0.000    0.028    0.029
 hybrid_alltoall_any                458 10.9    0.002    0.002    0.013    0.028
 check_for_restart_files              1  7.0    0.025    0.027    0.025    0.027
 mp_send_dv                         126 10.9    0.003    0.027    0.003    0.027
 dbcsr_create_new                 19276  8.9    0.014    0.021    0.019    0.026
 dbt_tas_merge_alltoall             182 15.2    0.000    0.000    0.025    0.026
 mp_sum_iv                           31  7.5    0.025    0.026    0.025    0.026
 mp_maxloc_dv                      1629  1.0    0.026    0.026    0.026    0.026
 dbt_reserve_blocks_template         30 11.0    0.000    0.002    0.017    0.024
 pw_scale                           345  9.5    0.019    0.023    0.019    0.023
 compute_proj_mo_on_kind              1  6.0    0.000    0.000    0.021    0.022
 dbcsr_iterator_stop              50883  9.0    0.013    0.018    0.016    0.021
 pw_grid_distribute                   4  8.0    0.004    0.004    0.020    0.020
 comm_data                           91 10.0    0.000    0.001    0.008    0.020
 calculate_hirshfeld_normalizat       1  6.0    0.000    0.004    0.017    0.020
 make_images_data                   172 11.0    0.001    0.001    0.006    0.019
 qs_env_update_s_mstruct              1  4.0    0.000    0.000    0.015    0.019
 qs_create_task_list                  1  5.0    0.000    0.000    0.015    0.019
 generate_qs_task_list                1  6.0    0.000    0.000    0.015    0.019
 distribute_tasks                     1  7.0    0.000    0.000    0.015    0.019
 mp_isend_lm2                     12347 16.7    0.007    0.018    0.007    0.018
 hirshfeld_integration                1  6.0    0.000    0.004    0.018    0.018
 compute_max_radius                   1  6.0    0.017    0.018    0.017    0.018
 cp_cfm_triangular_multiply           6  8.0    0.015    0.017    0.015    0.017
 multiply_cannon_metrocomm1        2064 11.0    0.001    0.001    0.006    0.017
 dbt_create_template                860  9.9    0.005    0.017    0.005    0.017
 xc_pw_smooth                        86 10.0    0.000    0.000    0.012    0.017
 -------------------------------------------------------------------------------

 The number of warnings for this run is : 1
 
 -------------------------------------------------------------------------------
  **** **** ******  **  PROGRAM ENDED AT                 2025-10-25 01:51:06.304
 ***** ** ***  *** **   PROGRAM RAN ON                                    cn1302
 **    ****   ******    PROGRAM RAN BY                                  metdyn02
 ***** **    ** ** **   PROGRAM PROCESS ID                               2035257
  **** **  *******  **  PROGRAM STOPPED IN /scratch/hpc-prf-metdyn/metdyn02_Remi
                                           /04_mol/Benchmark_mol_low_scal/aUKBqs
                                           EOTmq69kFe5R_nOg/5k_set_final_qzvp/KA
                                           PCUZ/DZVP/1e-5/7.0
