&GLOBAL
  PROJECT  MoS2
  PRINT_LEVEL MEDIUM
  RUN_TYPE ENERGY
  &TIMINGS
     THRESHOLD 0.0001
  &END
  TRACE
  TRACE_MASTER
  TRACE_ROUTINES compute_chi dbt_create_2c_R dbt_create_3c_R1_R2 dbt_create G_occ_vir contract_M_occ_vir_to_chi local_dbt_to_global_fm
&END GLOBAL
&FORCE_EVAL
  METHOD Quickstep
  !&PROPERTIES
  !&TDDFPT                          ! input section for TDDFPT
  !     KERNEL FULL                       ! specification of the underlying kernel matrix K
  !                                       ! FULL kernel is for GGA and hybrid functional computations
  !                                       ! sTDA kernel is referring to a semi-empirical sTDA computation
  !     NSTATES 20                      ! specifies the number of excited states to be computed
  !     MAX_ITER   100                  ! number of iterations for the Davidson algorithm
  !     CONVERGENCE [eV] 1.0e-6         ! convergence threshold in eV
  !     &XC                            ! If choosing kernel FULL, the underlying functional can be
  !      &XC_FUNCTIONAL PBE0             ! specified by adding an XC section
  !      &END XC_FUNCTIONAL              ! The functional can be chosen independently from the chosen
  !	 &HF
  !        &MEMORY 
  !          MAX_MEMORY 8000
  !	   &END MEMORY
  !	 &END HF
  !     &END XC                        ! GS functional except when choosing ADMM 
  !  &END TDDFPT
  !  &END PROPERTIES
  &DFT
    BASIS_SET_FILE_NAME /scratch/hpc-prf-metdyn/metdyn02_Remi/BASIS_AUG_MOLOPT/BASIS_ALL_MOLOPT_AUG_for_excited_states
    BASIS_SET_FILE_NAME /scratch/hpc-prf-metdyn/metdyn02_Remi/BASIS_AUG_MOLOPT/BASIS_ALL_MOLOPT_AUG_for_excited_states_RI
    BASIS_SET_FILE_NAME /scratch/hpc-prf-metdyn/metdyn02_Remi/BASIS_AUG_MOLOPT/aug-cc-pVZ
    BASIS_SET_FILE_NAME /scratch/hpc-prf-metdyn/metdyn02_Remi/BASIS_AUG_MOLOPT/aug-cc-pVZ-TOTRI
    SORT_BASIS EXP
    POTENTIAL_FILE_NAME  /pc2/groups/hpc-prf-metdyn/metdyn02_Remi/cp2k/cp2k/data/ALL_POTENTIALS 
    CHARGE 0
    &MGRID
      CUTOFF  500
      REL_CUTOFF  100
    &END MGRID
    &POISSON
      PERIODIC NONE
      POISSON_SOLVER WAVELET
    &END POISSON
    &QS
      METHOD GAPW
      EPS_DEFAULT 1.0E-12
      EPS_PGF_ORB 1.0E-12
    &END QS
    &SCF
      SCF_GUESS ATOMIC
      EPS_SCF 1.0E-6
      MAX_SCF 500
      &PRINT
        &RESTART ON
        &END
      &END
      ADDED_MOS -1
      &MIXING
          METHOD BROYDEN_MIXING
          ALPHA 0.1
          BETA 1.5
          NBROYDEN 8
      &END
      CHOLESKY OFF
    &END SCF
    &XC
      &XC_FUNCTIONAL PBE0
      &END XC_FUNCTIONAL
      &HF
         &MEMORY
          MAX_MEMORY 8000
         &END MEMORY
      &END HF
      &WF_CORRELATION
      	&RI_RPA
	  QUADRATURE_POINTS 100
      	  &GW
	    CORR_MOS_OCC -1
	    CORR_MOS_VIRT -1
	    &BSE
              BSE_DIAG_METHOD FULLDIAG
              TDA OFF
            &END BSE 
          &END GW	
        &END RI_RPA
      &END WF_CORRELATION
    &END XC
    &PRINT
    &OVERLAP_CONDITION ON
    DIAGONALIZATION T
    &END OVERLAP_CONDITION
    &END PRINT
  &END DFT
    &SUBSYS
    &CELL
      ABC                 30 30 30
      ALPHA_BETA_GAMMA    90 90 90
      PERIODIC NONE
    &END CELL

     &KIND S
      BASIS_SET ORB aug-DZVP-MOLOPT-ae
      BASIS_SET RI_AUX RI_aug-DZVP-MOLOPT-ae_N_RI_073_s_p_d_f_g_h_i_7_6_5_2_1_0_0_error_8.5e-05
      POTENTIAL ALL
     &END KIND

     &KIND N
      BASIS_SET ORB aug-DZVP-MOLOPT-ae
      BASIS_SET RI_AUX RI_aug-DZVP-MOLOPT-ae_N_RI_056_s_p_d_f_g_h_i_6_4_3_2_1_0_0_error_6.6e-05
      POTENTIAL ALL
     &END KIND

     &KIND C
      BASIS_SET ORB aug-DZVP-MOLOPT-ae
      BASIS_SET RI_AUX RI_aug-DZVP-MOLOPT-ae_N_RI_060_s_p_d_f_g_h_i_7_5_3_2_1_0_0_error_4.4e-05
      POTENTIAL ALL
     &END KIND

     &KIND H
      BASIS_SET ORB aug-DZVP-MOLOPT-ae
      BASIS_SET RI_AUX RI_aug-DZVP-MOLOPT-ae_N_RI_009_s_p_d_f_g_h_i_3_2_0_0_0_0_0_error_4.4e-05
      POTENTIAL ALL
     &END KIND

    




    &TOPOLOGY
     &CENTER_COORDINATES T
     &END CENTER_COORDINATES
    &END TOPOLOGY


    &COORD
     S 7.30038860 23.43916992 18.96224831
     N 8.41485786 25.84032525 18.20944917
     C 8.46260848 24.74517003 19.04141692
     H 8.09666461 25.68190144 17.26055079
     N 9.32913497 24.62330215 20.01809518
     N 9.12715923 23.50002985 20.76245503
     C 8.13257818 22.76118473 20.36093683
     C 7.72887711 21.47639401 20.99865750
     H 8.40341735 21.28766879 21.84136319
     H 7.79850609 20.63412676 20.29630332
     H 6.69719596 21.51411929 21.37472756
     H 9.25085352 26.41541245 18.26992504
&END COORD
  &END SUBSYS
&END FORCE_EVAL
