SIRIUS 7.7.0, git hash: https://api.github.com/repos/electronic-structure/SIRIUS/git/ref/tags/v7.7.0
 DBCSR| CPU Multiplication driver                                           BLAS (U)
 DBCSR| Multrec recursion limit                                              512 (U)
 DBCSR| Multiplication stack size                                           1000 (D)
 DBCSR| Maximum elements for images                                    UNLIMITED (U)
 DBCSR| Multiplicative factor virtual images                                   1 (U)
 DBCSR| Use multiplication densification                                       T (D)
 DBCSR| Multiplication size stacks                                             3 (U)
 DBCSR| Use memory pool for CPU allocation                                     F (U)
 DBCSR| Number of 3D layers                                               SINGLE (U)
 DBCSR| Use MPI memory allocation                                              F (U)
 DBCSR| Use RMA algorithm                                                      F (U)
 DBCSR| Use Communication thread                                               T (U)
 DBCSR| Communication thread load                                             75 (D)
 DBCSR| MPI: My process id                                                     0
 DBCSR| MPI: Number of processes                                             192
 DBCSR| OMP: Current number of threads                                         4
 DBCSR| OMP: Max number of threads                                             4
 DBCSR| Split modifier for TAS multiplication algorithm                  1.0E+00 (U)


  **** **** ******  **  PROGRAM STARTED AT               2025-10-25 04:46:56.062
 ***** ** ***  *** **   PROGRAM STARTED ON                                cn1509
 **    ****   ******    PROGRAM STARTED BY                              metdyn02
 ***** **    ** ** **   PROGRAM PROCESS ID                               2529293
  **** **  *******  **  PROGRAM STARTED IN /scratch/hpc-prf-metdyn/metdyn02_Remi
                                           /04_mol/Benchmark_mol_low_scal/aUKBqs
                                           EOTmq69kFe5R_nOg/5k_set_final_qzvp/DU
                                           QPAH/DZVP/1e-3/9.0

 CP2K| version string:                 CP2K version 2025.2 (Development Version)
 CP2K| source code revision number:                                  git:2a4e9c4
 CP2K| cp2kflags: omp libint fftw3 libxc libgrpp elpa parallel scalapack mpi_f08
 CP2K|             cosma xsmm plumed2 spglib sirius libvori libbqb libvdwxc hdf5
 CP2K| is freely available from                            https://www.cp2k.org/
 CP2K| Program compiled at                      Fri Oct 24 04:52:17 PM CEST 2025
 CP2K| Program compiled on                                                login1
 CP2K| Program compiled for                                                local
 CP2K| Data directory path    /opt/software/pc2/EB-SW/software/CP2K/2025.2-foss-
 CP2K| Input file name                                                    GW.inp

 GLOBAL| Force Environment number                                              1
 GLOBAL| Basis set file name            /pc2/groups/hpc-prf-metdyn/metdyn02_Remi
 GLOBAL| Potential file name            /pc2/groups/hpc-prf-metdyn/metdyn02_Remi
 GLOBAL| MM Potential file name                                     MM_POTENTIAL
 GLOBAL| Coordinate file name                                      __STD_INPUT__
 GLOBAL| Method name                                                        CP2K
 GLOBAL| Project name                                                       MoS2
 GLOBAL| Run type                                                         ENERGY
 GLOBAL| FFT library                                                       FFTW3
 GLOBAL| Diagonalization library                                            ELPA
 GLOBAL| Cholesky decomposition library                                ScaLAPACK
 GLOBAL| DGEMM library                                                      BLAS
 GLOBAL| Minimum number of eigenvectors for ELPA usage                        16
 GLOBAL| Orthonormality check for eigenvectors                          DISABLED
 GLOBAL| Matrix multiplication library                                     COSMA
 GLOBAL| All-to-all communication in single precision                          F
 GLOBAL| FFTs using library dependent lengths                                  F
 GLOBAL| Grid backend                                                       AUTO
 GLOBAL| Global print level                                               MEDIUM
 GLOBAL| MPI I/O enabled                                                       T
 GLOBAL| Total number of message passing processes                           192
 GLOBAL| Number of distributed systems (nodes)                                 4
 GLOBAL| Number of threads for this process                                    4
 GLOBAL| This output is from process                                           0
 GLOBAL| OpenMP stack size per thread (OMP_STACKSIZE)                    default
 GLOBAL| CPU model name                          AMD EPYC 9655 96-Core Processor
 GLOBAL| CPUID                                                              1003

 MEMORY| system memory details [Kb]
 MEMORY|                        rank 0           min           max       average
 MEMORY| MemTotal            791039060     791039060     791039132     791039085
 MEMORY| MemFree             750591884     750591884     751305720     750893516
 MEMORY| Buffers                  3164          2120          3168          2904
 MEMORY| Cached                7690952       7662000       7690952       7674086
 MEMORY| Slab                  2099308       2034804       2118300       2085518
 MEMORY| SReclaimable           887196        873160        905164        892578
 MEMORY| MemLikelyFree       759173196     759173196     759846564     759463084


 *** Fundamental physical constants (SI units) ***

 *** Literature: B. J. Mohr and B. N. Taylor,
 ***             CODATA recommended values of the fundamental physical
 ***             constants: 2006, Web Version 5.1
 ***             http://physics.nist.gov/constants

 Speed of light in vacuum [m/s]                             2.99792458000000E+08
 Magnetic constant or permeability of vacuum [N/A**2]       1.25663706143592E-06
 Electric constant or permittivity of vacuum [F/m]          8.85418781762039E-12
 Planck constant (h) [J*s]                                  6.62606896000000E-34
 Planck constant (h-bar) [J*s]                              1.05457162825177E-34
 Elementary charge [C]                                      1.60217648700000E-19
 Electron mass [kg]                                         9.10938215000000E-31
 Electron g factor [ ]                                     -2.00231930436220E+00
 Proton mass [kg]                                           1.67262163700000E-27
 Fine-structure constant                                    7.29735253760000E-03
 Rydberg constant [1/m]                                     1.09737315685270E+07
 Avogadro constant [1/mol]                                  6.02214179000000E+23
 Boltzmann constant [J/K]                                   1.38065040000000E-23
 Atomic mass unit [kg]                                      1.66053878200000E-27
 Bohr radius [m]                                            5.29177208590000E-11

 *** Conversion factors ***

 [u] -> [a.u.]                                              1.82288848426455E+03
 [Angstrom] -> [Bohr] = [a.u.]                              1.88972613288564E+00
 [a.u.] = [Bohr] -> [Angstrom]                              5.29177208590000E-01
 [a.u.] -> [s]                                              2.41888432650478E-17
 [a.u.] -> [fs]                                             2.41888432650478E-02
 [a.u.] -> [J]                                              4.35974393937059E-18
 [a.u.] -> [N]                                              8.23872205491840E-08
 [a.u.] -> [K]                                              3.15774647902944E+05
 [a.u.] -> [kJ/mol]                                         2.62549961709828E+03
 [a.u.] -> [kcal/mol]                                       6.27509468713739E+02
 [a.u.] -> [Pa]                                             2.94210107994716E+13
 [a.u.] -> [bar]                                            2.94210107994716E+08
 [a.u.] -> [atm]                                            2.90362800883016E+08
 [a.u.] -> [eV]                                             2.72113838565563E+01
 [a.u.] -> [Hz]                                             6.57968392072181E+15
 [a.u.] -> [1/cm] (wave numbers)                            2.19474631370540E+05
 [a.u./Bohr**2] -> [1/cm]                                   5.14048714338585E+03
 

 CELL_TOP| Volume [angstrom^3]:                                     27000.000000
 CELL_TOP| Vector a [angstrom    30.000     0.000     0.000   |a| =    30.000000
 CELL_TOP| Vector b [angstrom     0.000    30.000     0.000   |b| =    30.000000
 CELL_TOP| Vector c [angstrom     0.000     0.000    30.000   |c| =    30.000000
 CELL_TOP| Angle (b,c), alpha [degree]:                                90.000000
 CELL_TOP| Angle (a,c), beta  [degree]:                                90.000000
 CELL_TOP| Angle (a,b), gamma [degree]:                                90.000000
 CELL_TOP| Numerically orthorhombic:                                         YES
 CELL_TOP| Periodicity                                                      NONE

 GENERATE|  Preliminary Number of Bonds generated:                             0
 GENERATE|  Achieved consistency in connectivity generation.

 CELL| Volume [angstrom^3]:                                         27000.000000
 CELL| Vector a [angstrom]:      30.000     0.000     0.000   |a| =    30.000000
 CELL| Vector b [angstrom]:       0.000    30.000     0.000   |b| =    30.000000
 CELL| Vector c [angstrom]:       0.000     0.000    30.000   |c| =    30.000000
 CELL| Angle (b,c), alpha [degree]:                                    90.000000
 CELL| Angle (a,c), beta  [degree]:                                    90.000000
 CELL| Angle (a,b), gamma [degree]:                                    90.000000
 CELL| Numerically orthorhombic:                                             YES
 CELL| Periodicity                                                          NONE

 CELL_REF| Volume [angstrom^3]:                                     27000.000000
 CELL_REF| Vector a [angstrom    30.000     0.000     0.000   |a| =    30.000000
 CELL_REF| Vector b [angstrom     0.000    30.000     0.000   |b| =    30.000000
 CELL_REF| Vector c [angstrom     0.000     0.000    30.000   |c| =    30.000000
 CELL_REF| Angle (b,c), alpha [degree]:                                90.000000
 CELL_REF| Angle (a,c), beta  [degree]:                                90.000000
 CELL_REF| Angle (a,b), gamma [degree]:                                90.000000
 CELL_REF| Numerically orthorhombic:                                         YES
 CELL_REF| Periodicity                                                      NONE

 *******************************************************************************
 *******************************************************************************
 **                                                                           **
 **     #####                         ##              ##                      **
 **    ##   ##            ##          ##              ##                      **
 **   ##     ##                       ##            ######                    **
 **   ##     ##  ##   ##  ##   #####  ##  ##   ####   ##    #####    #####    **
 **   ##     ##  ##   ##  ##  ##      ## ##   ##      ##   ##   ##  ##   ##   **
 **   ##  ## ##  ##   ##  ##  ##      ####     ###    ##   ######   ######    **
 **    ##  ###   ##   ##  ##  ##      ## ##      ##   ##   ##       ##        **
 **     #######   #####   ##   #####  ##  ##  ####    ##    #####   ##        **
 **           ##                                                    ##        **
 **                                                                           **
 **                                                ... make the atoms dance   **
 **                                                                           **
 **            Copyright (C) by CP2K developers group (2000-2025)             **
 **                      J. Chem. Phys. 152, 194103 (2020)                    **
 **                                                                           **
 *******************************************************************************

 DFT| Spin restricted Kohn-Sham (RKS) calculation                            RKS
 DFT| Multiplicity                                                             1
 DFT| Number of spin states                                                    1
 DFT| Charge                                                                   0
 DFT| Self-interaction correction (SIC)                                       NO
 DFT| Cutoffs: density                                              1.000000E-10
 DFT|          gradient                                             1.000000E-10
 DFT|          tau                                                  1.000000E-10
 DFT|          cutoff_smoothing_range                               0.000000E+00
 DFT| XC density smoothing                                                  NONE
 DFT| XC derivatives                                                          PW

 FUNCTIONAL| PBE:
 FUNCTIONAL| J.P.Perdew, K.Burke, M.Ernzerhof, Phys. Rev. Letter, vol. 77, n 18,
 FUNCTIONAL|  pp. 3865-3868, (1996)sx=0.750sc=1.000{spin unpolarized}           


 QS| Method:                                                                GAPW
 QS| Density plane wave grid type                        NON-SPHERICAL FULLSPACE
 QS| Number of grid levels:                                                    4
 QS| Density cutoff [a.u.]:                                                250.0
 QS| Multi grid cutoff [a.u.]: 1) grid level                               250.0
 QS|                           2) grid level                                83.3
 QS|                           3) grid level                                27.8
 QS|                           4) grid level                                 9.3
 QS| Grid level progression factor:                                          3.0
 QS| Relative density cutoff [a.u.]:                                        50.0
 QS| Interaction thresholds: eps_pgf_orb:                                1.0E-12
 QS|                         eps_filter_matrix:                          0.0E+00
 QS|                         eps_core_charge:                            1.0E-14
 QS|                         eps_rho_gspace:                             1.0E-12
 QS|                         eps_rho_rspace:                             1.0E-12
 QS|                         eps_gvg_rspace:                             1.0E-06
 QS|                         eps_ppl:                                    1.0E-02
 QS|                         eps_ppnl:                                   1.0E-08
 QS| GAPW|      One center basis from orbital basis primitives
 QS| GAPW|                   eps_fit:                                    1.0E-04
 QS| GAPW|                   eps_iso:                                    1.0E-12
 QS| GAPW|                   eps_svd:                                    1.0E-08
 QS| GAPW|                   eps_cpc:                                    1.0E-12
 QS| GAPW|   atom-r-grid: quadrature:                                     GC_LOG
 QS| GAPW|      atom-s-grid:  max l :                                          6
 QS| GAPW|      max_l_rho0 :                                                   2


 ATOMIC KIND INFORMATION

  1. Atomic kind: C                                     Number of atoms:       6

     Orbital Basis Set                                        aug-DZVP-MOLOPT-ae

       Number of orbital shell sets:                                           2
       Number of orbital shells:                                              10
       Number of primitive Cartesian functions:                               13
       Number of Cartesian basis functions:                                   35
       Number of spherical basis functions:                                   30
       Norm type:                                                              2

       Normalised Cartesian orbitals:

                        Set   Shell   Orbital            Exponent    Coefficient

                          1       1    2px               0.050000       0.000000
                                                         0.096935       0.005344
                                                         0.300899       0.144116
                                                         0.937529       0.673511
                                                         4.145546       1.425967
                          1       1    2py               0.050000       0.000000
                                                         0.096935       0.005344
                                                         0.300899       0.144116
                                                         0.937529       0.673511
                                                         4.145546       1.425967
                          1       1    2pz               0.050000       0.000000
                                                         0.096935       0.005344
                                                         0.300899       0.144116
                                                         0.937529       0.673511
                                                         4.145546       1.425967

                          1       2    3px               0.050000       0.000000
                                                         0.096935       0.066903
                                                         0.300899       0.082631
                                                         0.937529      -0.414500
                                                         4.145546      -0.833488
                          1       2    3py               0.050000       0.000000
                                                         0.096935       0.066903
                                                         0.300899       0.082631
                                                         0.937529      -0.414500
                                                         4.145546      -0.833488
                          1       2    3pz               0.050000       0.000000
                                                         0.096935       0.066903
                                                         0.300899       0.082631
                                                         0.937529      -0.414500
                                                         4.145546      -0.833488

                          1       3    4px               0.050000       0.052477
                                                         0.096935      -0.149600
                                                         0.300899      -0.031452
                                                         0.937529       0.106528
                                                         4.145546       0.000000
                          1       3    4py               0.050000       0.052477
                                                         0.096935      -0.149600
                                                         0.300899      -0.031452
                                                         0.937529       0.106528
                                                         4.145546       0.000000
                          1       3    4pz               0.050000       0.052477
                                                         0.096935      -0.149600
                                                         0.300899      -0.031452
                                                         0.937529       0.106528
                                                         4.145546       0.000000

                          1       4    3dx2              0.050000       0.000000
                                                         0.096935       0.001258
                                                         0.300899       0.105504
                                                         0.937529       0.830801
                                                         4.145546       0.718979
                          1       4    3dxy              0.050000       0.000000
                                                         0.096935       0.002179
                                                         0.300899       0.182739
                                                         0.937529       1.438990
                                                         4.145546       1.245309
                          1       4    3dxz              0.050000       0.000000
                                                         0.096935       0.002179
                                                         0.300899       0.182739
                                                         0.937529       1.438990
                                                         4.145546       1.245309
                          1       4    3dy2              0.050000       0.000000
                                                         0.096935       0.001258
                                                         0.300899       0.105504
                                                         0.937529       0.830801
                                                         4.145546       0.718979
                          1       4    3dyz              0.050000       0.000000
                                                         0.096935       0.002179
                                                         0.300899       0.182739
                                                         0.937529       1.438990
                                                         4.145546       1.245309
                          1       4    3dz2              0.050000       0.000000
                                                         0.096935       0.001258
                                                         0.300899       0.105504
                                                         0.937529       0.830801
                                                         4.145546       0.718979

                          1       5    4dx2              0.050000      -0.011665
                                                         0.096935       0.057456
                                                         0.300899      -0.258169
                                                         0.937529       0.000000
                                                         4.145546       0.000000
                          1       5    4dxy              0.050000      -0.020204
                                                         0.096935       0.099516
                                                         0.300899      -0.447162
                                                         0.937529       0.000000
                                                         4.145546       0.000000
                          1       5    4dxz              0.050000      -0.020204
                                                         0.096935       0.099516
                                                         0.300899      -0.447162
                                                         0.937529       0.000000
                                                         4.145546       0.000000
                          1       5    4dy2              0.050000      -0.011665
                                                         0.096935       0.057456
                                                         0.300899      -0.258169
                                                         0.937529       0.000000
                                                         4.145546       0.000000
                          1       5    4dyz              0.050000      -0.020204
                                                         0.096935       0.099516
                                                         0.300899      -0.447162
                                                         0.937529       0.000000
                                                         4.145546       0.000000
                          1       5    4dz2              0.050000      -0.011665
                                                         0.096935       0.057456
                                                         0.300899      -0.258169
                                                         0.937529       0.000000
                                                         4.145546       0.000000

                          1       6    4fx3              0.050000      -0.000180
                                                         0.096935       0.008160
                                                         0.300899       0.004002
                                                         0.937529       0.000000
                                                         4.145546       0.000000
                          1       6    4fx2y             0.050000      -0.000402
                                                         0.096935       0.018246
                                                         0.300899       0.008949
                                                         0.937529       0.000000
                                                         4.145546       0.000000
                          1       6    4fx2z             0.050000      -0.000402
                                                         0.096935       0.018246
                                                         0.300899       0.008949
                                                         0.937529       0.000000
                                                         4.145546       0.000000
                          1       6    4fxy2             0.050000      -0.000402
                                                         0.096935       0.018246
                                                         0.300899       0.008949
                                                         0.937529       0.000000
                                                         4.145546       0.000000
                          1       6    4fxyz             0.050000      -0.000696
                                                         0.096935       0.031603
                                                         0.300899       0.015500
                                                         0.937529       0.000000
                                                         4.145546       0.000000
                          1       6    4fxz2             0.050000      -0.000402
                                                         0.096935       0.018246
                                                         0.300899       0.008949
                                                         0.937529       0.000000
                                                         4.145546       0.000000
                          1       6    4fy3              0.050000      -0.000180
                                                         0.096935       0.008160
                                                         0.300899       0.004002
                                                         0.937529       0.000000
                                                         4.145546       0.000000
                          1       6    4fy2z             0.050000      -0.000402
                                                         0.096935       0.018246
                                                         0.300899       0.008949
                                                         0.937529       0.000000
                                                         4.145546       0.000000
                          1       6    4fyz2             0.050000      -0.000402
                                                         0.096935       0.018246
                                                         0.300899       0.008949
                                                         0.937529       0.000000
                                                         4.145546       0.000000
                          1       6    4fz3              0.050000      -0.000180
                                                         0.096935       0.008160
                                                         0.300899       0.004002
                                                         0.937529       0.000000
                                                         4.145546       0.000000

                          2       1    1s                0.060000       0.000000
                                                         0.161278       0.024253
                                                         0.523772      -0.029268
                                                         3.176528       0.666384
                                                        10.501907       2.110671
                                                        40.805234       2.242010
                                                       186.270922       1.801845
                                                      1238.394264      -0.490536

                          2       2    2s                0.060000       0.000000
                                                         0.161278       0.080328
                                                         0.523772       0.279468
                                                         3.176528      -0.079506
                                                        10.501907      -0.033488
                                                        40.805234       0.350132
                                                       186.270922      -0.108171
                                                      1238.394264       0.147138

                          2       3    3s                0.060000       0.000000
                                                         0.161278       0.225687
                                                         0.523772      -0.382710
                                                         3.176528      -0.308205
                                                        10.501907      -0.974990
                                                        40.805234      -2.174132
                                                       186.270922       1.755878
                                                      1238.394264     -12.484315

                          2       4    4s                0.060000      -0.055653
                                                         0.161278      -0.019607
                                                         0.523772       0.500289
                                                         3.176528       0.067234
                                                        10.501907       0.000000
                                                        40.805234       0.000000
                                                       186.270922       0.000000
                                                      1238.394264       0.000000

     RI Auxiliary Basis Set             RI_aug-DZVP-MOLOPT-ae_N_RI_035_s_p_d_f_g

       Number of orbital shell sets:                                          13
       Number of orbital shells:                                              13
       Number of primitive Cartesian functions:                               13
       Number of Cartesian basis functions:                                   40
       Number of spherical basis functions:                                   35
       Norm type:                                                              2

       Normalised Cartesian orbitals:

                        Set   Shell   Orbital            Exponent    Coefficient

                          1       1    1s                0.134513       0.158301

                          2       1    7px               0.345342       0.377357
                          2       1    7py               0.345342       0.377357
                          2       1    7pz               0.345342       0.377357

                          3       1    2s                0.391664       0.352854

                          4       1   11dx2              0.436474       0.385777
                          4       1   11dxy              0.436474       0.668185
                          4       1   11dxz              0.436474       0.668185
                          4       1   11dy2              0.436474       0.385777
                          4       1   11dyz              0.436474       0.668185
                          4       1   11dz2              0.436474       0.385777

                          5       1    8px               0.727642       0.957938
                          5       1    8py               0.727642       0.957938
                          5       1    8pz               0.727642       0.957938

                          6       1   13fx3              0.949659       1.310636
                          6       1   13fx2y             0.949659       2.930670
                          6       1   13fx2z             0.949659       2.930670
                          6       1   13fxy2             0.949659       2.930670
                          6       1   13fxyz             0.949659       5.076070
                          6       1   13fxz2             0.949659       2.930670
                          6       1   13fy3              0.949659       1.310636
                          6       1   13fy2z             0.949659       2.930670
                          6       1   13fyz2             0.949659       2.930670
                          6       1   13fz3              0.949659       1.310636

                          7       1   12dx2              1.330423       2.712634
                          7       1   12dxy              1.330423       4.698420
                          7       1   12dxz              1.330423       4.698420
                          7       1   12dy2              1.330423       2.712634
                          7       1   12dyz              1.330423       4.698420
                          7       1   12dz2              1.330423       2.712634

                          8       1    3s                1.404274       0.919388

                          9       1    9px               3.021876       5.679182
                          9       1    9py               3.021876       5.679182
                          9       1    9pz               3.021876       5.679182

                         10       1    4s                5.605818       2.596506

                         11       1   10px              16.034552      45.736309
                         11       1   10py              16.034552      45.736309
                         11       1   10pz              16.034552      45.736309

                         12       1    5s               21.900534       7.215246

                         13       1    6s               82.022187      19.424892

       Atomic covalent radius [Angstrom]:                                  0.770

       Atomic van der Waals radius [Angstrom]:                             1.700

     The atoms of this atomic kind are PAW atoms (GAPW):
       Hard Gaussian function radius:                                      1.512
       Rho0 radius:                                                        1.512
       Maximum GTO radius used for PAW projector construction:            24.566

     GAPW Soft Basis Set                                 aug-DZVP-MOLOPT-ae_soft

       Number of orbital shell sets:                                           2
       Number of orbital shells:                                              10
       Number of primitive Cartesian functions:                                9
       Number of Cartesian basis functions:                                   35
       Number of spherical basis functions:                                   30
       Norm type:                                                              2

       Normalised Cartesian orbitals:

                        Set   Shell   Orbital            Exponent    Coefficient

                          1       1    2px               0.050000       0.000000
                                                         0.096935       0.005344
                                                         0.300899       0.144116
                                                         0.937529       0.673511
                                                         4.145546       1.425967
                          1       1    2py               0.050000       0.000000
                                                         0.096935       0.005344
                                                         0.300899       0.144116
                                                         0.937529       0.673511
                                                         4.145546       1.425967
                          1       1    2pz               0.050000       0.000000
                                                         0.096935       0.005344
                                                         0.300899       0.144116
                                                         0.937529       0.673511
                                                         4.145546       1.425967

                          1       2    3px               0.050000       0.000000
                                                         0.096935       0.066903
                                                         0.300899       0.082631
                                                         0.937529      -0.414500
                                                         4.145546      -0.833488
                          1       2    3py               0.050000       0.000000
                                                         0.096935       0.066903
                                                         0.300899       0.082631
                                                         0.937529      -0.414500
                                                         4.145546      -0.833488
                          1       2    3pz               0.050000       0.000000
                                                         0.096935       0.066903
                                                         0.300899       0.082631
                                                         0.937529      -0.414500
                                                         4.145546      -0.833488

                          1       3    4px               0.050000       0.052477
                                                         0.096935      -0.149600
                                                         0.300899      -0.031452
                                                         0.937529       0.106528
                                                         4.145546       0.000000
                          1       3    4py               0.050000       0.052477
                                                         0.096935      -0.149600
                                                         0.300899      -0.031452
                                                         0.937529       0.106528
                                                         4.145546       0.000000
                          1       3    4pz               0.050000       0.052477
                                                         0.096935      -0.149600
                                                         0.300899      -0.031452
                                                         0.937529       0.106528
                                                         4.145546       0.000000

                          1       4    3dx2              0.050000       0.000000
                                                         0.096935       0.001258
                                                         0.300899       0.105504
                                                         0.937529       0.830801
                                                         4.145546       0.718979
                          1       4    3dxy              0.050000       0.000000
                                                         0.096935       0.002179
                                                         0.300899       0.182739
                                                         0.937529       1.438990
                                                         4.145546       1.245309
                          1       4    3dxz              0.050000       0.000000
                                                         0.096935       0.002179
                                                         0.300899       0.182739
                                                         0.937529       1.438990
                                                         4.145546       1.245309
                          1       4    3dy2              0.050000       0.000000
                                                         0.096935       0.001258
                                                         0.300899       0.105504
                                                         0.937529       0.830801
                                                         4.145546       0.718979
                          1       4    3dyz              0.050000       0.000000
                                                         0.096935       0.002179
                                                         0.300899       0.182739
                                                         0.937529       1.438990
                                                         4.145546       1.245309
                          1       4    3dz2              0.050000       0.000000
                                                         0.096935       0.001258
                                                         0.300899       0.105504
                                                         0.937529       0.830801
                                                         4.145546       0.718979

                          1       5    4dx2              0.050000      -0.011665
                                                         0.096935       0.057456
                                                         0.300899      -0.258169
                                                         0.937529       0.000000
                                                         4.145546       0.000000
                          1       5    4dxy              0.050000      -0.020204
                                                         0.096935       0.099516
                                                         0.300899      -0.447162
                                                         0.937529       0.000000
                                                         4.145546       0.000000
                          1       5    4dxz              0.050000      -0.020204
                                                         0.096935       0.099516
                                                         0.300899      -0.447162
                                                         0.937529       0.000000
                                                         4.145546       0.000000
                          1       5    4dy2              0.050000      -0.011665
                                                         0.096935       0.057456
                                                         0.300899      -0.258169
                                                         0.937529       0.000000
                                                         4.145546       0.000000
                          1       5    4dyz              0.050000      -0.020204
                                                         0.096935       0.099516
                                                         0.300899      -0.447162
                                                         0.937529       0.000000
                                                         4.145546       0.000000
                          1       5    4dz2              0.050000      -0.011665
                                                         0.096935       0.057456
                                                         0.300899      -0.258169
                                                         0.937529       0.000000
                                                         4.145546       0.000000

                          1       6    4fx3              0.050000      -0.000180
                                                         0.096935       0.008160
                                                         0.300899       0.004002
                                                         0.937529       0.000000
                                                         4.145546       0.000000
                          1       6    4fx2y             0.050000      -0.000402
                                                         0.096935       0.018246
                                                         0.300899       0.008949
                                                         0.937529       0.000000
                                                         4.145546       0.000000
                          1       6    4fx2z             0.050000      -0.000402
                                                         0.096935       0.018246
                                                         0.300899       0.008949
                                                         0.937529       0.000000
                                                         4.145546       0.000000
                          1       6    4fxy2             0.050000      -0.000402
                                                         0.096935       0.018246
                                                         0.300899       0.008949
                                                         0.937529       0.000000
                                                         4.145546       0.000000
                          1       6    4fxyz             0.050000      -0.000696
                                                         0.096935       0.031603
                                                         0.300899       0.015500
                                                         0.937529       0.000000
                                                         4.145546       0.000000
                          1       6    4fxz2             0.050000      -0.000402
                                                         0.096935       0.018246
                                                         0.300899       0.008949
                                                         0.937529       0.000000
                                                         4.145546       0.000000
                          1       6    4fy3              0.050000      -0.000180
                                                         0.096935       0.008160
                                                         0.300899       0.004002
                                                         0.937529       0.000000
                                                         4.145546       0.000000
                          1       6    4fy2z             0.050000      -0.000402
                                                         0.096935       0.018246
                                                         0.300899       0.008949
                                                         0.937529       0.000000
                                                         4.145546       0.000000
                          1       6    4fyz2             0.050000      -0.000402
                                                         0.096935       0.018246
                                                         0.300899       0.008949
                                                         0.937529       0.000000
                                                         4.145546       0.000000
                          1       6    4fz3              0.050000      -0.000180
                                                         0.096935       0.008160
                                                         0.300899       0.004002
                                                         0.937529       0.000000
                                                         4.145546       0.000000

                          2       1    1s                0.060000       0.000000
                                                         0.161278       0.024253
                                                         0.523772      -0.029268
                                                         3.176528       0.666384

                          2       2    2s                0.060000       0.000000
                                                         0.161278       0.080328
                                                         0.523772       0.279468
                                                         3.176528      -0.079506

                          2       3    3s                0.060000       0.000000
                                                         0.161278       0.225687
                                                         0.523772      -0.382710
                                                         3.176528      -0.308205

                          2       4    4s                0.060000      -0.055653
                                                         0.161278      -0.019607
                                                         0.523772       0.500289
                                                         3.176528       0.067234

     AE Potential information for                                            ALL

       Description:                                       All-electron potential
                                          Krack, Parrinello, PCCP 2, 2105 (2000)

       Gaussian exponent of the core charge distribution:               4.109048
       Electronic configuration (s p d ...):                           4   2   0

  2. Atomic kind: H                                     Number of atoms:       8

     Orbital Basis Set                                        aug-DZVP-MOLOPT-ae

       Number of orbital shell sets:                                           1
       Number of orbital shells:                                               5
       Number of primitive Cartesian functions:                                5
       Number of Cartesian basis functions:                                    9
       Number of spherical basis functions:                                    9
       Norm type:                                                              2

       Normalised Cartesian orbitals:

                        Set   Shell   Orbital            Exponent    Coefficient

                          1       1    2s                0.035000       0.000000
                                                         0.111920       0.009149
                                                         0.374948       0.205449
                                                         1.446686       0.373852
                                                        12.248855       0.310040

                          1       2    3s                0.035000       0.000000
                                                         0.111920       0.143650
                                                         0.374948       0.007287
                                                         1.446686      -0.188851
                                                        12.248855      -0.144753

                          1       3    4s                0.035000       0.090463
                                                         0.111920      -0.203934
                                                         0.374948      -0.000376
                                                         1.446686      -0.000051
                                                        12.248855       0.000000

                          1       4    3px               0.035000       0.000000
                                                         0.111920       0.007225
                                                         0.374948       0.280770
                                                         1.446686       0.896497
                                                        12.248855      -0.764411
                          1       4    3py               0.035000       0.000000
                                                         0.111920       0.007225
                                                         0.374948       0.280770
                                                         1.446686       0.896497
                                                        12.248855      -0.764411
                          1       4    3pz               0.035000       0.000000
                                                         0.111920       0.007225
                                                         0.374948       0.280770
                                                         1.446686       0.896497
                                                        12.248855      -0.764411

                          1       5    4px               0.035000       0.011331
                                                         0.111920       0.048737
                                                         0.374948       0.028490
                                                         1.446686       0.035587
                                                        12.248855       0.000000
                          1       5    4py               0.035000       0.011331
                                                         0.111920       0.048737
                                                         0.374948       0.028490
                                                         1.446686       0.035587
                                                        12.248855       0.000000
                          1       5    4pz               0.035000       0.011331
                                                         0.111920       0.048737
                                                         0.374948       0.028490
                                                         1.446686       0.035587
                                                        12.248855       0.000000

     RI Auxiliary Basis Set             RI_aug-DZVP-MOLOPT-ae_N_RI_009_s_p_d_f_g

       Number of orbital shell sets:                                           5
       Number of orbital shells:                                               5
       Number of primitive Cartesian functions:                                5
       Number of Cartesian basis functions:                                    9
       Number of spherical basis functions:                                    9
       Norm type:                                                              2

       Normalised Cartesian orbitals:

                        Set   Shell   Orbital            Exponent    Coefficient

                          1       1    4px               0.330315       0.356944
                          1       1    4py               0.330315       0.356944
                          1       1    4pz               0.330315       0.356944

                          2       1    1s                0.373568       0.340555

                          3       1    2s                0.886477       0.651119

                          4       1    5px               1.451319       2.270616
                          4       1    5py               1.451319       2.270616
                          4       1    5pz               1.451319       2.270616

                          5       1    3s                5.028848       2.393379

       Atomic covalent radius [Angstrom]:                                  0.320

       Atomic van der Waals radius [Angstrom]:                             1.090

     The atoms of this atomic kind are PAW atoms (GAPW):
       Hard Gaussian function radius:                                      1.200
       Rho0 radius:                                                        1.200
       Maximum GTO radius used for PAW projector construction:            24.566

     GAPW Soft Basis Set                                 aug-DZVP-MOLOPT-ae_soft

       Number of orbital shell sets:                                           1
       Number of orbital shells:                                               5
       Number of primitive Cartesian functions:                                4
       Number of Cartesian basis functions:                                    9
       Number of spherical basis functions:                                    9
       Norm type:                                                              2

       Normalised Cartesian orbitals:

                        Set   Shell   Orbital            Exponent    Coefficient

                          1       1    2s                0.035000       0.000000
                                                         0.111920       0.009149
                                                         0.374948       0.205449
                                                         1.446686       0.373852

                          1       2    3s                0.035000       0.000000
                                                         0.111920       0.143650
                                                         0.374948       0.007287
                                                         1.446686      -0.188851

                          1       3    4s                0.035000       0.090463
                                                         0.111920      -0.203934
                                                         0.374948      -0.000376
                                                         1.446686      -0.000051

                          1       4    3px               0.035000       0.000000
                                                         0.111920       0.007225
                                                         0.374948       0.280770
                                                         1.446686       0.896497
                          1       4    3py               0.035000       0.000000
                                                         0.111920       0.007225
                                                         0.374948       0.280770
                                                         1.446686       0.896497
                          1       4    3pz               0.035000       0.000000
                                                         0.111920       0.007225
                                                         0.374948       0.280770
                                                         1.446686       0.896497

                          1       5    4px               0.035000       0.011331
                                                         0.111920       0.048737
                                                         0.374948       0.028490
                                                         1.446686       0.035587
                          1       5    4py               0.035000       0.011331
                                                         0.111920       0.048737
                                                         0.374948       0.028490
                                                         1.446686       0.035587
                          1       5    4pz               0.035000       0.011331
                                                         0.111920       0.048737
                                                         0.374948       0.028490
                                                         1.446686       0.035587

     AE Potential information for                                            ALL

       Description:                                       All-electron potential
                                          Krack, Parrinello, PCCP 2, 2105 (2000)

       Gaussian exponent of the core charge distribution:              12.500000
       Electronic configuration (s p d ...):                           1   0   0

  3. Atomic kind: N                                     Number of atoms:       2

     Orbital Basis Set                                        aug-DZVP-MOLOPT-ae

       Number of orbital shell sets:                                           2
       Number of orbital shells:                                              10
       Number of primitive Cartesian functions:                               12
       Number of Cartesian basis functions:                                   35
       Number of spherical basis functions:                                   30
       Norm type:                                                              2

       Normalised Cartesian orbitals:

                        Set   Shell   Orbital            Exponent    Coefficient

                          1       1    2s                0.060000      -0.096639
                                                         0.166384       0.037538
                                                         0.634073      -0.055669
                                                         2.325354       0.000000
                                                        12.268174       0.000000

                          1       2    3px               0.060000       0.000000
                                                         0.166384      -0.031930
                                                         0.634073      -0.492962
                                                         2.325354      -1.380142
                                                        12.268174      -2.349358
                          1       2    3py               0.060000       0.000000
                                                         0.166384      -0.031930
                                                         0.634073      -0.492962
                                                         2.325354      -1.380142
                                                        12.268174      -2.349358
                          1       2    3pz               0.060000       0.000000
                                                         0.166384      -0.031930
                                                         0.634073      -0.492962
                                                         2.325354      -1.380142
                                                        12.268174      -2.349358

                          1       3    4px               0.060000       0.000000
                                                         0.166384       0.169694
                                                         0.634073      -0.220766
                                                         2.325354      -0.809234
                                                        12.268174      -0.998521
                          1       3    4py               0.060000       0.000000
                                                         0.166384       0.169694
                                                         0.634073      -0.220766
                                                         2.325354      -0.809234
                                                        12.268174      -0.998521
                          1       3    4pz               0.060000       0.000000
                                                         0.166384       0.169694
                                                         0.634073      -0.220766
                                                         2.325354      -0.809234
                                                        12.268174      -0.998521

                          1       4    5px               0.060000       0.028594
                                                         0.166384       0.063224
                                                         0.634073      -0.046183
                                                         2.325354       0.000000
                                                        12.268174       0.000000
                          1       4    5py               0.060000       0.028594
                                                         0.166384       0.063224
                                                         0.634073      -0.046183
                                                         2.325354       0.000000
                                                        12.268174       0.000000
                          1       4    5pz               0.060000       0.028594
                                                         0.166384       0.063224
                                                         0.634073      -0.046183
                                                         2.325354       0.000000
                                                        12.268174       0.000000

                          1       5    4dx2              0.060000       0.000000
                                                         0.166384       0.019402
                                                         0.634073       0.555487
                                                         2.325354       1.255926
                                                        12.268174      -0.426175
                          1       5    4dxy              0.060000       0.000000
                                                         0.166384       0.033606
                                                         0.634073       0.962132
                                                         2.325354       2.175327
                                                        12.268174      -0.738157
                          1       5    4dxz              0.060000       0.000000
                                                         0.166384       0.033606
                                                         0.634073       0.962132
                                                         2.325354       2.175327
                                                        12.268174      -0.738157
                          1       5    4dy2              0.060000       0.000000
                                                         0.166384       0.019402
                                                         0.634073       0.555487
                                                         2.325354       1.255926
                                                        12.268174      -0.426175
                          1       5    4dyz              0.060000       0.000000
                                                         0.166384       0.033606
                                                         0.634073       0.962132
                                                         2.325354       2.175327
                                                        12.268174      -0.738157
                          1       5    4dz2              0.060000       0.000000
                                                         0.166384       0.019402
                                                         0.634073       0.555487
                                                         2.325354       1.255926
                                                        12.268174      -0.426175

                          1       6    5dx2              0.060000      -0.008089
                                                         0.166384      -0.027907
                                                         0.634073      -0.057221
                                                         2.325354       0.000000
                                                        12.268174       0.000000
                          1       6    5dxy              0.060000      -0.014011
                                                         0.166384      -0.048336
                                                         0.634073      -0.099109
                                                         2.325354       0.000000
                                                        12.268174       0.000000
                          1       6    5dxz              0.060000      -0.014011
                                                         0.166384      -0.048336
                                                         0.634073      -0.099109
                                                         2.325354       0.000000
                                                        12.268174       0.000000
                          1       6    5dy2              0.060000      -0.008089
                                                         0.166384      -0.027907
                                                         0.634073      -0.057221
                                                         2.325354       0.000000
                                                        12.268174       0.000000
                          1       6    5dyz              0.060000      -0.014011
                                                         0.166384      -0.048336
                                                         0.634073      -0.099109
                                                         2.325354       0.000000
                                                        12.268174       0.000000
                          1       6    5dz2              0.060000      -0.008089
                                                         0.166384      -0.027907
                                                         0.634073      -0.057221
                                                         2.325354       0.000000
                                                        12.268174       0.000000

                          1       7    5fx3              0.060000       0.000067
                                                         0.166384       0.012645
                                                         0.634073       0.328269
                                                         2.325354       1.687172
                                                        12.268174       0.000000
                          1       7    5fx2y             0.060000       0.000150
                                                         0.166384       0.028275
                                                         0.634073       0.734031
                                                         2.325354       3.772631
                                                        12.268174       0.000000
                          1       7    5fx2z             0.060000       0.000150
                                                         0.166384       0.028275
                                                         0.634073       0.734031
                                                         2.325354       3.772631
                                                        12.268174       0.000000
                          1       7    5fxy2             0.060000       0.000150
                                                         0.166384       0.028275
                                                         0.634073       0.734031
                                                         2.325354       3.772631
                                                        12.268174       0.000000
                          1       7    5fxyz             0.060000       0.000260
                                                         0.166384       0.048973
                                                         0.634073       1.271379
                                                         2.325354       6.534389
                                                        12.268174       0.000000
                          1       7    5fxz2             0.060000       0.000150
                                                         0.166384       0.028275
                                                         0.634073       0.734031
                                                         2.325354       3.772631
                                                        12.268174       0.000000
                          1       7    5fy3              0.060000       0.000067
                                                         0.166384       0.012645
                                                         0.634073       0.328269
                                                         2.325354       1.687172
                                                        12.268174       0.000000
                          1       7    5fy2z             0.060000       0.000150
                                                         0.166384       0.028275
                                                         0.634073       0.734031
                                                         2.325354       3.772631
                                                        12.268174       0.000000
                          1       7    5fyz2             0.060000       0.000150
                                                         0.166384       0.028275
                                                         0.634073       0.734031
                                                         2.325354       3.772631
                                                        12.268174       0.000000
                          1       7    5fz3              0.060000       0.000067
                                                         0.166384       0.012645
                                                         0.634073       0.328269
                                                         2.325354       1.687172
                                                        12.268174       0.000000

                          2       1    1s                0.191012      -0.002582
                                                         0.666629       0.012902
                                                         4.403487      -0.858326
                                                        14.651380      -2.749170
                                                        57.692026      -2.958222
                                                       257.997554      -1.897300
                                                      1713.054433      -1.166486

                          2       2    2s                0.191012       0.079194
                                                         0.666629       0.351708
                                                         4.403487       0.009155
                                                        14.651380       0.000424
                                                        57.692026       0.772862
                                                       257.997554      -0.458166
                                                      1713.054433       0.520658

                          2       3    3s                0.191012       0.300064
                                                         0.666629      -0.436823
                                                         4.403487      -0.072962
                                                        14.651380      -0.095292
                                                        57.692026      -1.262420
                                                       257.997554       0.741400
                                                      1713.054433      -0.270364

     RI Auxiliary Basis Set             RI_aug-DZVP-MOLOPT-ae_N_RI_039_s_p_d_f_g

       Number of orbital shell sets:                                          11
       Number of orbital shells:                                              11
       Number of primitive Cartesian functions:                               11
       Number of Cartesian basis functions:                                   50
       Number of spherical basis functions:                                   39
       Norm type:                                                              2

       Normalised Cartesian orbitals:

                        Set   Shell   Orbital            Exponent    Coefficient

                          1       1    1s                0.362292       0.332816

                          2       1    5px               0.627072       0.795403
                          2       1    5py               0.627072       0.795403
                          2       1    5pz               0.627072       0.795403

                          3       1    8dx2              0.761042       1.020644
                          3       1    8dxy              0.761042       1.767807
                          3       1    8dxz              0.761042       1.767807
                          3       1    8dy2              0.761042       1.020644
                          3       1    8dyz              0.761042       1.767807
                          3       1    8dz2              0.761042       1.020644

                          4       1   10fx3              1.083799       1.764368
                          4       1   10fx2y             1.083799       3.945247
                          4       1   10fx2z             1.083799       3.945247
                          4       1   10fxy2             1.083799       3.945247
                          4       1   10fxyz             1.083799       6.833368
                          4       1   10fxz2             1.083799       3.945247
                          4       1   10fy3              1.083799       1.764368
                          4       1   10fy2z             1.083799       3.945247
                          4       1   10fyz2             1.083799       3.945247
                          4       1   10fz3              1.083799       1.764368

                          5       1    6px               1.259239       1.901408
                          5       1    6py               1.259239       1.901408
                          5       1    6pz               1.259239       1.901408

                          6       1   11gx4              1.291057       2.246649
                          6       1   11gx3y             1.291057       5.944074
                          6       1   11gx3z             1.291057       5.944074
                          6       1   11gx2y2            1.291057       7.673766
                          6       1   11gx2yz            1.291057      13.291353
                          6       1   11gx2z2            1.291057       7.673766
                          6       1   11gxy3             1.291057       5.944074
                          6       1   11gxy2z            1.291057      13.291353
                          6       1   11gxyz2            1.291057      13.291353
                          6       1   11gxz3             1.291057       5.944074
                          6       1   11gy4              1.291057       2.246649
                          6       1   11gy3z             1.291057       5.944074
                          6       1   11gy2z2            1.291057       7.673766
                          6       1   11gyz3             1.291057       5.944074
                          6       1   11gz4              1.291057       2.246649

                          7       1    2s                1.635496       1.030736

                          8       1    9dx2              3.465946      14.490975
                          8       1    9dxy              3.465946      25.099104
                          8       1    9dxz              3.465946      25.099104
                          8       1    9dy2              3.465946      14.490975
                          8       1    9dyz              3.465946      25.099104
                          8       1    9dz2              3.465946      14.490975

                          9       1    3s               12.763940       4.812809

                         10       1    7px              13.735323      37.691089
                         10       1    7py              13.735323      37.691089
                         10       1    7pz              13.735323      37.691089

                         11       1    4s              110.054394      24.216737

       Atomic covalent radius [Angstrom]:                                  0.750

       Atomic van der Waals radius [Angstrom]:                             1.550

     The atoms of this atomic kind are PAW atoms (GAPW):
       Hard Gaussian function radius:                                      1.512
       Rho0 radius:                                                        1.512
       Maximum GTO radius used for PAW projector construction:            24.566

     GAPW Soft Basis Set                                 aug-DZVP-MOLOPT-ae_soft

       Number of orbital shell sets:                                           2
       Number of orbital shells:                                              10
       Number of primitive Cartesian functions:                                6
       Number of Cartesian basis functions:                                   35
       Number of spherical basis functions:                                   30
       Norm type:                                                              2

       Normalised Cartesian orbitals:

                        Set   Shell   Orbital            Exponent    Coefficient

                          1       1    2s                0.060000      -0.096639
                                                         0.166384       0.037538
                                                         0.634073      -0.055669
                                                         2.325354       0.000000

                          1       2    3px               0.060000       0.000000
                                                         0.166384      -0.031930
                                                         0.634073      -0.492962
                                                         2.325354      -1.380142
                          1       2    3py               0.060000       0.000000
                                                         0.166384      -0.031930
                                                         0.634073      -0.492962
                                                         2.325354      -1.380142
                          1       2    3pz               0.060000       0.000000
                                                         0.166384      -0.031930
                                                         0.634073      -0.492962
                                                         2.325354      -1.380142

                          1       3    4px               0.060000       0.000000
                                                         0.166384       0.169694
                                                         0.634073      -0.220766
                                                         2.325354      -0.809234
                          1       3    4py               0.060000       0.000000
                                                         0.166384       0.169694
                                                         0.634073      -0.220766
                                                         2.325354      -0.809234
                          1       3    4pz               0.060000       0.000000
                                                         0.166384       0.169694
                                                         0.634073      -0.220766
                                                         2.325354      -0.809234

                          1       4    5px               0.060000       0.028594
                                                         0.166384       0.063224
                                                         0.634073      -0.046183
                                                         2.325354       0.000000
                          1       4    5py               0.060000       0.028594
                                                         0.166384       0.063224
                                                         0.634073      -0.046183
                                                         2.325354       0.000000
                          1       4    5pz               0.060000       0.028594
                                                         0.166384       0.063224
                                                         0.634073      -0.046183
                                                         2.325354       0.000000

                          1       5    4dx2              0.060000       0.000000
                                                         0.166384       0.019402
                                                         0.634073       0.555487
                                                         2.325354       1.255926
                          1       5    4dxy              0.060000       0.000000
                                                         0.166384       0.033606
                                                         0.634073       0.962132
                                                         2.325354       2.175327
                          1       5    4dxz              0.060000       0.000000
                                                         0.166384       0.033606
                                                         0.634073       0.962132
                                                         2.325354       2.175327
                          1       5    4dy2              0.060000       0.000000
                                                         0.166384       0.019402
                                                         0.634073       0.555487
                                                         2.325354       1.255926
                          1       5    4dyz              0.060000       0.000000
                                                         0.166384       0.033606
                                                         0.634073       0.962132
                                                         2.325354       2.175327
                          1       5    4dz2              0.060000       0.000000
                                                         0.166384       0.019402
                                                         0.634073       0.555487
                                                         2.325354       1.255926

                          1       6    5dx2              0.060000      -0.008089
                                                         0.166384      -0.027907
                                                         0.634073      -0.057221
                                                         2.325354       0.000000
                          1       6    5dxy              0.060000      -0.014011
                                                         0.166384      -0.048336
                                                         0.634073      -0.099109
                                                         2.325354       0.000000
                          1       6    5dxz              0.060000      -0.014011
                                                         0.166384      -0.048336
                                                         0.634073      -0.099109
                                                         2.325354       0.000000
                          1       6    5dy2              0.060000      -0.008089
                                                         0.166384      -0.027907
                                                         0.634073      -0.057221
                                                         2.325354       0.000000
                          1       6    5dyz              0.060000      -0.014011
                                                         0.166384      -0.048336
                                                         0.634073      -0.099109
                                                         2.325354       0.000000
                          1       6    5dz2              0.060000      -0.008089
                                                         0.166384      -0.027907
                                                         0.634073      -0.057221
                                                         2.325354       0.000000

                          1       7    5fx3              0.060000       0.000067
                                                         0.166384       0.012645
                                                         0.634073       0.328269
                                                         2.325354       1.687172
                          1       7    5fx2y             0.060000       0.000150
                                                         0.166384       0.028275
                                                         0.634073       0.734031
                                                         2.325354       3.772631
                          1       7    5fx2z             0.060000       0.000150
                                                         0.166384       0.028275
                                                         0.634073       0.734031
                                                         2.325354       3.772631
                          1       7    5fxy2             0.060000       0.000150
                                                         0.166384       0.028275
                                                         0.634073       0.734031
                                                         2.325354       3.772631
                          1       7    5fxyz             0.060000       0.000260
                                                         0.166384       0.048973
                                                         0.634073       1.271379
                                                         2.325354       6.534389
                          1       7    5fxz2             0.060000       0.000150
                                                         0.166384       0.028275
                                                         0.634073       0.734031
                                                         2.325354       3.772631
                          1       7    5fy3              0.060000       0.000067
                                                         0.166384       0.012645
                                                         0.634073       0.328269
                                                         2.325354       1.687172
                          1       7    5fy2z             0.060000       0.000150
                                                         0.166384       0.028275
                                                         0.634073       0.734031
                                                         2.325354       3.772631
                          1       7    5fyz2             0.060000       0.000150
                                                         0.166384       0.028275
                                                         0.634073       0.734031
                                                         2.325354       3.772631
                          1       7    5fz3              0.060000       0.000067
                                                         0.166384       0.012645
                                                         0.634073       0.328269
                                                         2.325354       1.687172

                          2       1    1s                0.191012      -0.002582
                                                         0.666629       0.012902

                          2       2    2s                0.191012       0.079194
                                                         0.666629       0.351708

                          2       3    3s                0.191012       0.300064
                                                         0.666629      -0.436823

     AE Potential information for                                            ALL

       Description:                                       All-electron potential
                                          Krack, Parrinello, PCCP 2, 2105 (2000)

       Gaussian exponent of the core charge distribution:               5.979100
       Electronic configuration (s p d ...):                           4   3   0

  4. Atomic kind: S                                     Number of atoms:       1

     Orbital Basis Set                                        aug-DZVP-MOLOPT-ae

       Number of orbital shell sets:                                           3
       Number of orbital shells:                                              12
       Number of primitive Cartesian functions:                               18
       Number of Cartesian basis functions:                                   39
       Number of spherical basis functions:                                   34
       Norm type:                                                              2

       Normalised Cartesian orbitals:

                        Set   Shell   Orbital            Exponent    Coefficient

                          1       1    1s                0.070000       0.160238
                                                         0.132026      -0.106319
                                                         0.461903      -0.064590
                                                         2.043261       0.000000
                                                         6.030247       0.000000
                                                        18.817576       0.000000
                                                        61.243244       0.000000
                                                       262.037180       0.000000

                          1       2    2px               0.070000       0.000000
                                                         0.132026      -0.006041
                                                         0.461903       0.020884
                                                         2.043261      -1.163342
                                                         6.030247      -7.192527
                                                        18.817576     -14.902856
                                                        61.243244     -16.017959
                                                       262.037180     -14.606063
                          1       2    2py               0.070000       0.000000
                                                         0.132026      -0.006041
                                                         0.461903       0.020884
                                                         2.043261      -1.163342
                                                         6.030247      -7.192527
                                                        18.817576     -14.902856
                                                        61.243244     -16.017959
                                                       262.037180     -14.606063
                          1       2    2pz               0.070000       0.000000
                                                         0.132026      -0.006041
                                                         0.461903       0.020884
                                                         2.043261      -1.163342
                                                         6.030247      -7.192527
                                                        18.817576     -14.902856
                                                        61.243244     -16.017959
                                                       262.037180     -14.606063

                          1       3    3px               0.070000       0.000000
                                                         0.132026       0.013372
                                                         0.461903       0.460806
                                                         2.043261       0.527227
                                                         6.030247      -0.800963
                                                        18.817576       1.692650
                                                        61.243244      -2.127051
                                                       262.037180       6.627568
                          1       3    3py               0.070000       0.000000
                                                         0.132026       0.013372
                                                         0.461903       0.460806
                                                         2.043261       0.527227
                                                         6.030247      -0.800963
                                                        18.817576       1.692650
                                                        61.243244      -2.127051
                                                       262.037180       6.627568
                          1       3    3pz               0.070000       0.000000
                                                         0.132026       0.013372
                                                         0.461903       0.460806
                                                         2.043261       0.527227
                                                         6.030247      -0.800963
                                                        18.817576       1.692650
                                                        61.243244      -2.127051
                                                       262.037180       6.627568

                          1       4    4px               0.070000       0.000000
                                                         0.132026       0.122461
                                                         0.461903      -0.074630
                                                         2.043261      -0.266435
                                                         6.030247      -0.600117
                                                        18.817576      -2.837173
                                                        61.243244       0.679283
                                                       262.037180      -9.723876
                          1       4    4py               0.070000       0.000000
                                                         0.132026       0.122461
                                                         0.461903      -0.074630
                                                         2.043261      -0.266435
                                                         6.030247      -0.600117
                                                        18.817576      -2.837173
                                                        61.243244       0.679283
                                                       262.037180      -9.723876
                          1       4    4pz               0.070000       0.000000
                                                         0.132026       0.122461
                                                         0.461903      -0.074630
                                                         2.043261      -0.266435
                                                         6.030247      -0.600117
                                                        18.817576      -2.837173
                                                        61.243244       0.679283
                                                       262.037180      -9.723876

                          1       5    5px               0.070000      -0.010761
                                                         0.132026      -0.065366
                                                         0.461903       0.662552
                                                         2.043261       0.000000
                                                         6.030247       0.000000
                                                        18.817576       0.000000
                                                        61.243244       0.000000
                                                       262.037180       0.000000
                          1       5    5py               0.070000      -0.010761
                                                         0.132026      -0.065366
                                                         0.461903       0.662552
                                                         2.043261       0.000000
                                                         6.030247       0.000000
                                                        18.817576       0.000000
                                                        61.243244       0.000000
                                                       262.037180       0.000000
                          1       5    5pz               0.070000      -0.010761
                                                         0.132026      -0.065366
                                                         0.461903       0.662552
                                                         2.043261       0.000000
                                                         6.030247       0.000000
                                                        18.817576       0.000000
                                                        61.243244       0.000000
                                                       262.037180       0.000000

                          1       6    3dx2              0.070000       0.000000
                                                         0.132026       0.010167
                                                         0.461903       0.321348
                                                         2.043261       1.422467
                                                         6.030247      -0.691425
                                                        18.817576       4.642944
                                                        61.243244     -11.887587
                                                       262.037180      63.210336
                          1       6    3dxy              0.070000       0.000000
                                                         0.132026       0.017609
                                                         0.461903       0.556591
                                                         2.043261       2.463785
                                                         6.030247      -1.197583
                                                        18.817576       8.041814
                                                        61.243244     -20.589904
                                                       262.037180     109.483513
                          1       6    3dxz              0.070000       0.000000
                                                         0.132026       0.017609
                                                         0.461903       0.556591
                                                         2.043261       2.463785
                                                         6.030247      -1.197583
                                                        18.817576       8.041814
                                                        61.243244     -20.589904
                                                       262.037180     109.483513
                          1       6    3dy2              0.070000       0.000000
                                                         0.132026       0.010167
                                                         0.461903       0.321348
                                                         2.043261       1.422467
                                                         6.030247      -0.691425
                                                        18.817576       4.642944
                                                        61.243244     -11.887587
                                                       262.037180      63.210336
                          1       6    3dyz              0.070000       0.000000
                                                         0.132026       0.017609
                                                         0.461903       0.556591
                                                         2.043261       2.463785
                                                         6.030247      -1.197583
                                                        18.817576       8.041814
                                                        61.243244     -20.589904
                                                       262.037180     109.483513
                          1       6    3dz2              0.070000       0.000000
                                                         0.132026       0.010167
                                                         0.461903       0.321348
                                                         2.043261       1.422467
                                                         6.030247      -0.691425
                                                        18.817576       4.642944
                                                        61.243244     -11.887587
                                                       262.037180      63.210336

                          1       7    4dx2              0.070000       0.004993
                                                         0.132026       0.031835
                                                         0.461903       0.041246
                                                         2.043261       0.000000
                                                         6.030247       0.000000
                                                        18.817576       0.000000
                                                        61.243244       0.000000
                                                       262.037180       0.000000
                          1       7    4dxy              0.070000       0.008648
                                                         0.132026       0.055140
                                                         0.461903       0.071440
                                                         2.043261       0.000000
                                                         6.030247       0.000000
                                                        18.817576       0.000000
                                                        61.243244       0.000000
                                                       262.037180       0.000000
                          1       7    4dxz              0.070000       0.008648
                                                         0.132026       0.055140
                                                         0.461903       0.071440
                                                         2.043261       0.000000
                                                         6.030247       0.000000
                                                        18.817576       0.000000
                                                        61.243244       0.000000
                                                       262.037180       0.000000
                          1       7    4dy2              0.070000       0.004993
                                                         0.132026       0.031835
                                                         0.461903       0.041246
                                                         2.043261       0.000000
                                                         6.030247       0.000000
                                                        18.817576       0.000000
                                                        61.243244       0.000000
                                                       262.037180       0.000000
                          1       7    4dyz              0.070000       0.008648
                                                         0.132026       0.055140
                                                         0.461903       0.071440
                                                         2.043261       0.000000
                                                         6.030247       0.000000
                                                        18.817576       0.000000
                                                        61.243244       0.000000
                                                       262.037180       0.000000
                          1       7    4dz2              0.070000       0.004993
                                                         0.132026       0.031835
                                                         0.461903       0.041246
                                                         2.043261       0.000000
                                                         6.030247       0.000000
                                                        18.817576       0.000000
                                                        61.243244       0.000000
                                                       262.037180       0.000000

                          1       8    4fx3              0.070000       0.001179
                                                         0.132026       0.004915
                                                         0.461903       0.162520
                                                         2.043261       0.000000
                                                         6.030247       0.000000
                                                        18.817576       0.000000
                                                        61.243244       0.000000
                                                       262.037180       0.000000
                          1       8    4fx2y             0.070000       0.002636
                                                         0.132026       0.010991
                                                         0.461903       0.363406
                                                         2.043261       0.000000
                                                         6.030247       0.000000
                                                        18.817576       0.000000
                                                        61.243244       0.000000
                                                       262.037180       0.000000
                          1       8    4fx2z             0.070000       0.002636
                                                         0.132026       0.010991
                                                         0.461903       0.363406
                                                         2.043261       0.000000
                                                         6.030247       0.000000
                                                        18.817576       0.000000
                                                        61.243244       0.000000
                                                       262.037180       0.000000
                          1       8    4fxy2             0.070000       0.002636
                                                         0.132026       0.010991
                                                         0.461903       0.363406
                                                         2.043261       0.000000
                                                         6.030247       0.000000
                                                        18.817576       0.000000
                                                        61.243244       0.000000
                                                       262.037180       0.000000
                          1       8    4fxyz             0.070000       0.004567
                                                         0.132026       0.019037
                                                         0.461903       0.629438
                                                         2.043261       0.000000
                                                         6.030247       0.000000
                                                        18.817576       0.000000
                                                        61.243244       0.000000
                                                       262.037180       0.000000
                          1       8    4fxz2             0.070000       0.002636
                                                         0.132026       0.010991
                                                         0.461903       0.363406
                                                         2.043261       0.000000
                                                         6.030247       0.000000
                                                        18.817576       0.000000
                                                        61.243244       0.000000
                                                       262.037180       0.000000
                          1       8    4fy3              0.070000       0.001179
                                                         0.132026       0.004915
                                                         0.461903       0.162520
                                                         2.043261       0.000000
                                                         6.030247       0.000000
                                                        18.817576       0.000000
                                                        61.243244       0.000000
                                                       262.037180       0.000000
                          1       8    4fy2z             0.070000       0.002636
                                                         0.132026       0.010991
                                                         0.461903       0.363406
                                                         2.043261       0.000000
                                                         6.030247       0.000000
                                                        18.817576       0.000000
                                                        61.243244       0.000000
                                                       262.037180       0.000000
                          1       8    4fyz2             0.070000       0.002636
                                                         0.132026       0.010991
                                                         0.461903       0.363406
                                                         2.043261       0.000000
                                                         6.030247       0.000000
                                                        18.817576       0.000000
                                                        61.243244       0.000000
                                                       262.037180       0.000000
                          1       8    4fz3              0.070000       0.001179
                                                         0.132026       0.004915
                                                         0.461903       0.162520
                                                         2.043261       0.000000
                                                         6.030247       0.000000
                                                        18.817576       0.000000
                                                        61.243244       0.000000
                                                       262.037180       0.000000

                          2       1    1s               45.482850      -1.175639
                                                         4.876333       1.431452
                                                         1.864066       0.572778
                                                         0.430250      -0.034078
                                                         0.152872       0.004775

                          2       2    2s               45.482850      -0.314552
                                                         4.876333       0.236776
                                                         1.864066      -0.009167
                                                         0.430250       0.282804
                                                         0.152872       0.044200

                          2       3    3s               45.482850       0.143312
                                                         4.876333      -0.094249
                                                         1.864066      -0.118759
                                                         0.430250      -0.172982
                                                         0.152872       0.236834

                          3       1    1s             9184.968607      -3.488008
                                                      1381.514008      -6.811623
                                                       313.892819      -9.517673
                                                        87.514579     -10.059465
                                                        25.931396      -3.470689

     RI Auxiliary Basis Set             RI_aug-DZVP-MOLOPT-ae_N_RI_070_s_p_d_f_g

       Number of orbital shell sets:                                          20
       Number of orbital shells:                                              20
       Number of primitive Cartesian functions:                               20
       Number of Cartesian basis functions:                                   87
       Number of spherical basis functions:                                   70
       Norm type:                                                              2

       Normalised Cartesian orbitals:

                        Set   Shell   Orbital            Exponent    Coefficient

                          1       1    1s                0.290170       0.281773

                          2       1    8px               0.314630       0.335885
                          2       1    8py               0.314630       0.335885
                          2       1    8pz               0.314630       0.335885

                          3       1   13dx2              0.384744       0.309358
                          3       1   13dxy              0.384744       0.535823
                          3       1   13dxz              0.384744       0.535823
                          3       1   13dy2              0.384744       0.309358
                          3       1   13dyz              0.384744       0.535823
                          3       1   13dz2              0.384744       0.309358

                          4       1   18fx3              0.410858       0.198957
                          4       1   18fx2y             0.410858       0.444882
                          4       1   18fx2z             0.410858       0.444882
                          4       1   18fxy2             0.410858       0.444882
                          4       1   18fxyz             0.410858       0.770558
                          4       1   18fxz2             0.410858       0.444882
                          4       1   18fy3              0.410858       0.198957
                          4       1   18fy2z             0.410858       0.444882
                          4       1   18fyz2             0.410858       0.444882
                          4       1   18fz3              0.410858       0.198957

                          5       1    2s                0.475226       0.407929

                          6       1   20gx4              0.561450       0.227531
                          6       1   20gx3y             0.561450       0.601991
                          6       1   20gx3z             0.561450       0.601991
                          6       1   20gx2y2            0.561450       0.777167
                          6       1   20gx2yz            0.561450       1.346092
                          6       1   20gx2z2            0.561450       0.777167
                          6       1   20gxy3             0.561450       0.601991
                          6       1   20gxy2z            0.561450       1.346092
                          6       1   20gxyz2            0.561450       1.346092
                          6       1   20gxz3             0.561450       0.601991
                          6       1   20gy4              0.561450       0.227531
                          6       1   20gy3z             0.561450       0.601991
                          6       1   20gy2z2            0.561450       0.777167
                          6       1   20gyz3             0.561450       0.601991
                          6       1   20gz4              0.561450       0.227531

                          7       1    9px               0.657504       0.843943
                          7       1    9py               0.657504       0.843943
                          7       1    9pz               0.657504       0.843943

                          8       1   14dx2              0.737494       0.966022
                          8       1   14dxy              0.737494       1.673199
                          8       1   14dxz              0.737494       1.673199
                          8       1   14dy2              0.737494       0.966022
                          8       1   14dyz              0.737494       1.673199
                          8       1   14dz2              0.737494       0.966022

                          9       1   19fx3              1.069208       1.711371
                          9       1   19fx2y             1.069208       3.826743
                          9       1   19fx2z             1.069208       3.826743
                          9       1   19fxy2             1.069208       3.826743
                          9       1   19fxyz             1.069208       6.628113
                          9       1   19fxz2             1.069208       3.826743
                          9       1   19fy3              1.069208       1.711371
                          9       1   19fy2z             1.069208       3.826743
                          9       1   19fyz2             1.069208       3.826743
                          9       1   19fz3              1.069208       1.711371

                         10       1    3s                1.588438       1.008412

                         11       1   15dx2              2.392547       7.575571
                         11       1   15dxy              2.392547      13.121275
                         11       1   15dxz              2.392547      13.121275
                         11       1   15dy2              2.392547       7.575571
                         11       1   15dyz              2.392547      13.121275
                         11       1   15dz2              2.392547       7.575571

                         12       1   10px               3.082758       5.822565
                         12       1   10py               3.082758       5.822565
                         12       1   10pz               3.082758       5.822565

                         13       1    4s                6.490759       2.898222

                         14       1   16dx2              8.854706      74.810782
                         14       1   16dxy              8.854706     129.576075
                         14       1   16dxz              8.854706     129.576075
                         14       1   16dy2              8.854706      74.810782
                         14       1   16dyz              8.854706     129.576075
                         14       1   16dz2              8.854706      74.810782

                         15       1   11px              17.084560      49.510217
                         15       1   11py              17.084560      49.510217
                         15       1   11pz              17.084560      49.510217

                         16       1    5s               25.852602       8.171246

                         17       1   17dx2             31.845757     702.667274
                         17       1   17dxy             31.845757    1217.055420
                         17       1   17dxz             31.845757    1217.055420
                         17       1   17dy2             31.845757     702.667274
                         17       1   17dyz             31.845757    1217.055420
                         17       1   17dz2             31.845757     702.667274

                         18       1    6s               96.507981      21.944845

                         19       1   12px              97.369393     435.981607
                         19       1   12py              97.369393     435.981607
                         19       1   12pz              97.369393     435.981607

                         20       1    7s              352.377214      57.965015

       Atomic covalent radius [Angstrom]:                                  1.020

       Atomic van der Waals radius [Angstrom]:                             1.800

     The atoms of this atomic kind are PAW atoms (GAPW):
       Hard Gaussian function radius:                                      1.512
       Rho0 radius:                                                        1.512
       Maximum GTO radius used for PAW projector construction:            24.566

     GAPW Soft Basis Set                                 aug-DZVP-MOLOPT-ae_soft

       Number of orbital shell sets:                                           3
       Number of orbital shells:                                              12
       Number of primitive Cartesian functions:                                7
       Number of Cartesian basis functions:                                   39
       Number of spherical basis functions:                                   34
       Norm type:                                                              2

       Normalised Cartesian orbitals:

                        Set   Shell   Orbital            Exponent    Coefficient

                          1       1    1s                0.070000       0.160238
                                                         0.132026      -0.106319
                                                         0.461903      -0.064590
                                                         2.043261       0.000000

                          1       2    2px               0.070000       0.000000
                                                         0.132026      -0.006041
                                                         0.461903       0.020884
                                                         2.043261      -1.163342
                          1       2    2py               0.070000       0.000000
                                                         0.132026      -0.006041
                                                         0.461903       0.020884
                                                         2.043261      -1.163342
                          1       2    2pz               0.070000       0.000000
                                                         0.132026      -0.006041
                                                         0.461903       0.020884
                                                         2.043261      -1.163342

                          1       3    3px               0.070000       0.000000
                                                         0.132026       0.013372
                                                         0.461903       0.460806
                                                         2.043261       0.527227
                          1       3    3py               0.070000       0.000000
                                                         0.132026       0.013372
                                                         0.461903       0.460806
                                                         2.043261       0.527227
                          1       3    3pz               0.070000       0.000000
                                                         0.132026       0.013372
                                                         0.461903       0.460806
                                                         2.043261       0.527227

                          1       4    4px               0.070000       0.000000
                                                         0.132026       0.122461
                                                         0.461903      -0.074630
                                                         2.043261      -0.266435
                          1       4    4py               0.070000       0.000000
                                                         0.132026       0.122461
                                                         0.461903      -0.074630
                                                         2.043261      -0.266435
                          1       4    4pz               0.070000       0.000000
                                                         0.132026       0.122461
                                                         0.461903      -0.074630
                                                         2.043261      -0.266435

                          1       5    5px               0.070000      -0.010761
                                                         0.132026      -0.065366
                                                         0.461903       0.662552
                                                         2.043261       0.000000
                          1       5    5py               0.070000      -0.010761
                                                         0.132026      -0.065366
                                                         0.461903       0.662552
                                                         2.043261       0.000000
                          1       5    5pz               0.070000      -0.010761
                                                         0.132026      -0.065366
                                                         0.461903       0.662552
                                                         2.043261       0.000000

                          1       6    3dx2              0.070000       0.000000
                                                         0.132026       0.010167
                                                         0.461903       0.321348
                                                         2.043261       1.422467
                          1       6    3dxy              0.070000       0.000000
                                                         0.132026       0.017609
                                                         0.461903       0.556591
                                                         2.043261       2.463785
                          1       6    3dxz              0.070000       0.000000
                                                         0.132026       0.017609
                                                         0.461903       0.556591
                                                         2.043261       2.463785
                          1       6    3dy2              0.070000       0.000000
                                                         0.132026       0.010167
                                                         0.461903       0.321348
                                                         2.043261       1.422467
                          1       6    3dyz              0.070000       0.000000
                                                         0.132026       0.017609
                                                         0.461903       0.556591
                                                         2.043261       2.463785
                          1       6    3dz2              0.070000       0.000000
                                                         0.132026       0.010167
                                                         0.461903       0.321348
                                                         2.043261       1.422467

                          1       7    4dx2              0.070000       0.004993
                                                         0.132026       0.031835
                                                         0.461903       0.041246
                                                         2.043261       0.000000
                          1       7    4dxy              0.070000       0.008648
                                                         0.132026       0.055140
                                                         0.461903       0.071440
                                                         2.043261       0.000000
                          1       7    4dxz              0.070000       0.008648
                                                         0.132026       0.055140
                                                         0.461903       0.071440
                                                         2.043261       0.000000
                          1       7    4dy2              0.070000       0.004993
                                                         0.132026       0.031835
                                                         0.461903       0.041246
                                                         2.043261       0.000000
                          1       7    4dyz              0.070000       0.008648
                                                         0.132026       0.055140
                                                         0.461903       0.071440
                                                         2.043261       0.000000
                          1       7    4dz2              0.070000       0.004993
                                                         0.132026       0.031835
                                                         0.461903       0.041246
                                                         2.043261       0.000000

                          1       8    4fx3              0.070000       0.001179
                                                         0.132026       0.004915
                                                         0.461903       0.162520
                                                         2.043261       0.000000
                          1       8    4fx2y             0.070000       0.002636
                                                         0.132026       0.010991
                                                         0.461903       0.363406
                                                         2.043261       0.000000
                          1       8    4fx2z             0.070000       0.002636
                                                         0.132026       0.010991
                                                         0.461903       0.363406
                                                         2.043261       0.000000
                          1       8    4fxy2             0.070000       0.002636
                                                         0.132026       0.010991
                                                         0.461903       0.363406
                                                         2.043261       0.000000
                          1       8    4fxyz             0.070000       0.004567
                                                         0.132026       0.019037
                                                         0.461903       0.629438
                                                         2.043261       0.000000
                          1       8    4fxz2             0.070000       0.002636
                                                         0.132026       0.010991
                                                         0.461903       0.363406
                                                         2.043261       0.000000
                          1       8    4fy3              0.070000       0.001179
                                                         0.132026       0.004915
                                                         0.461903       0.162520
                                                         2.043261       0.000000
                          1       8    4fy2z             0.070000       0.002636
                                                         0.132026       0.010991
                                                         0.461903       0.363406
                                                         2.043261       0.000000
                          1       8    4fyz2             0.070000       0.002636
                                                         0.132026       0.010991
                                                         0.461903       0.363406
                                                         2.043261       0.000000
                          1       8    4fz3              0.070000       0.001179
                                                         0.132026       0.004915
                                                         0.461903       0.162520
                                                         2.043261       0.000000

                          2       1    1s                1.864066       0.572778
                                                         0.430250      -0.034078
                                                         0.152872       0.004775

                          2       2    2s                1.864066      -0.009167
                                                         0.430250       0.282804
                                                         0.152872       0.044200

                          2       3    3s                1.864066      -0.118759
                                                         0.430250      -0.172982
                                                         0.152872       0.236834

                          3       1    1s         

     AE Potential information for                                            ALL

       Description:                                       All-electron potential
                                          Krack, Parrinello, PCCP 2, 2105 (2000)

       Gaussian exponent of the core charge distribution:               2.834467
       Electronic configuration (s p d ...):                           6  10   0

  5. Atomic kind: O                                     Number of atoms:       1

     Orbital Basis Set                                        aug-DZVP-MOLOPT-ae

       Number of orbital shell sets:                                           2
       Number of orbital shells:                                              10
       Number of primitive Cartesian functions:                               12
       Number of Cartesian basis functions:                                   35
       Number of spherical basis functions:                                   30
       Norm type:                                                              2

       Normalised Cartesian orbitals:

                        Set   Shell   Orbital            Exponent    Coefficient

                          1       1    2s                0.090000       0.120905
                                                         0.191936      -0.019521
                                                         0.750068       0.059582
                                                         2.907977       0.000000
                                                        16.368686       0.000000

                          1       2    3px               0.090000       0.000000
                                                         0.191936       0.023686
                                                         0.750068       0.626550
                                                         2.907977       2.082711
                                                        16.368686       3.596544
                          1       2    3py               0.090000       0.000000
                                                         0.191936       0.023686
                                                         0.750068       0.626550
                                                         2.907977       2.082711
                                                        16.368686       3.596544
                          1       2    3pz               0.090000       0.000000
                                                         0.191936       0.023686
                                                         0.750068       0.626550
                                                         2.907977       2.082711
                                                        16.368686       3.596544

                          1       3    4px               0.090000       0.000000
                                                         0.191936       0.196557
                                                         0.750068      -0.157257
                                                         2.907977      -0.566756
                                                        16.368686      -1.323495
                          1       3    4py               0.090000       0.000000
                                                         0.191936       0.196557
                                                         0.750068      -0.157257
                                                         2.907977      -0.566756
                                                        16.368686      -1.323495
                          1       3    4pz               0.090000       0.000000
                                                         0.191936       0.196557
                                                         0.750068      -0.157257
                                                         2.907977      -0.566756
                                                        16.368686      -1.323495

                          1       4    5px               0.090000       0.020606
                                                         0.191936       0.124186
                                                         0.750068       0.098287
                                                         2.907977       0.000000
                                                        16.368686       0.000000
                          1       4    5py               0.090000       0.020606
                                                         0.191936       0.124186
                                                         0.750068       0.098287
                                                         2.907977       0.000000
                                                        16.368686       0.000000
                          1       4    5pz               0.090000       0.020606
                                                         0.191936       0.124186
                                                         0.750068       0.098287
                                                         2.907977       0.000000
                                                        16.368686       0.000000

                          1       5    4dx2              0.090000       0.000000
                                                         0.191936       0.030414
                                                         0.750068       0.724129
                                                         2.907977       1.586204
                                                        16.368686       1.487256
                          1       5    4dxy              0.090000       0.000000
                                                         0.191936       0.052678
                                                         0.750068       1.254227
                                                         2.907977       2.747386
                                                        16.368686       2.576002
                          1       5    4dxz              0.090000       0.000000
                                                         0.191936       0.052678
                                                         0.750068       1.254227
                                                         2.907977       2.747386
                                                        16.368686       2.576002
                          1       5    4dy2              0.090000       0.000000
                                                         0.191936       0.030414
                                                         0.750068       0.724129
                                                         2.907977       1.586204
                                                        16.368686       1.487256
                          1       5    4dyz              0.090000       0.000000
                                                         0.191936       0.052678
                                                         0.750068       1.254227
                                                         2.907977       2.747386
                                                        16.368686       2.576002
                          1       5    4dz2              0.090000       0.000000
                                                         0.191936       0.030414
                                                         0.750068       0.724129
                                                         2.907977       1.586204
                                                        16.368686       1.487256

                          1       6    5dx2              0.090000      -0.010181
                                                         0.191936       0.018957
                                                         0.750068       0.933882
                                                         2.907977       0.008471
                                                        16.368686       0.000000
                          1       6    5dxy              0.090000      -0.017634
                                                         0.191936       0.032834
                                                         0.750068       1.617531
                                                         2.907977       0.014671
                                                        16.368686       0.000000
                          1       6    5dxz              0.090000      -0.017634
                                                         0.191936       0.032834
                                                         0.750068       1.617531
                                                         2.907977       0.014671
                                                        16.368686       0.000000
                          1       6    5dy2              0.090000      -0.010181
                                                         0.191936       0.018957
                                                         0.750068       0.933882
                                                         2.907977       0.008471
                                                        16.368686       0.000000
                          1       6    5dyz              0.090000      -0.017634
                                                         0.191936       0.032834
                                                         0.750068       1.617531
                                                         2.907977       0.014671
                                                        16.368686       0.000000
                          1       6    5dz2              0.090000      -0.010181
                                                         0.191936       0.018957
                                                         0.750068       0.933882
                                                         2.907977       0.008471
                                                        16.368686       0.000000

                          1       7    5fx3              0.090000       0.003073
                                                         0.191936       0.017866
                                                         0.750068       0.208981
                                                         2.907977      -1.809714
                                                        16.368686       0.000000
                          1       7    5fx2y             0.090000       0.006871
                                                         0.191936       0.039950
                                                         0.750068       0.467295
                                                         2.907977      -4.046643
                                                        16.368686       0.000000
                          1       7    5fx2z             0.090000       0.006871
                                                         0.191936       0.039950
                                                         0.750068       0.467295
                                                         2.907977      -4.046643
                                                        16.368686       0.000000
                          1       7    5fxy2             0.090000       0.006871
                                                         0.191936       0.039950
                                                         0.750068       0.467295
                                                         2.907977      -4.046643
                                                        16.368686       0.000000
                          1       7    5fxyz             0.090000       0.011901
                                                         0.191936       0.069196
                                                         0.750068       0.809378
                                                         2.907977      -7.008992
                                                        16.368686       0.000000
                          1       7    5fxz2             0.090000       0.006871
                                                         0.191936       0.039950
                                                         0.750068       0.467295
                                                         2.907977      -4.046643
                                                        16.368686       0.000000
                          1       7    5fy3              0.090000       0.003073
                                                         0.191936       0.017866
                                                         0.750068       0.208981
                                                         2.907977      -1.809714
                                                        16.368686       0.000000
                          1       7    5fy2z             0.090000       0.006871
                                                         0.191936       0.039950
                                                         0.750068       0.467295
                                                         2.907977      -4.046643
                                                        16.368686       0.000000
                          1       7    5fyz2             0.090000       0.006871
                                                         0.191936       0.039950
                                                         0.750068       0.467295
                                                         2.907977      -4.046643
                                                        16.368686       0.000000
                          1       7    5fz3              0.090000       0.003073
                                                         0.191936       0.017866
                                                         0.750068       0.208981
                                                         2.907977      -1.809714
                                                        16.368686       0.000000

                          2       1    1s                0.293338      -0.001581
                                                         0.941883       0.076823
                                                         5.946538      -1.128731
                                                        19.692604      -3.542509
                                                        76.928143      -3.538410
                                                       340.903325      -2.616043
                                                      2266.118827      -1.088852

                          2       2    2s                0.293338       0.124568
                                                         0.941883       0.386056
                                                         5.946538       0.132815
                                                        19.692604       0.350657
                                                        76.928143       1.294240
                                                       340.903325      -0.343055
                                                      2266.118827       0.730749

                          2       3    3s                0.293338       0.411906
                                                         0.941883      -0.735854
                                                         5.946538      -0.324434
                                                        19.692604      -0.580898
                                                        76.928143      -3.484318
                                                       340.903325       2.878168
                                                      2266.118827      -6.417666

     RI Auxiliary Basis Set             RI_aug-DZVP-MOLOPT-ae_N_RI_041_s_p_d_f_g

       Number of orbital shell sets:                                          15
       Number of orbital shells:                                              15
       Number of primitive Cartesian functions:                               15
       Number of Cartesian basis functions:                                   47
       Number of spherical basis functions:                                   41
       Norm type:                                                              2

       Normalised Cartesian orbitals:

                        Set   Shell   Orbital            Exponent    Coefficient

                          1       1    1s                0.310264       0.296284

                          2       1    8px               0.507186       0.610097
                          2       1    8py               0.507186       0.610097
                          2       1    8pz               0.507186       0.610097

                          3       1   12dx2              0.680069       0.838258
                          3       1   12dxy              0.680069       1.451905
                          3       1   12dxz              0.680069       1.451905
                          3       1   12dy2              0.680069       0.838258
                          3       1   12dyz              0.680069       1.451905
                          3       1   12dz2              0.680069       0.838258

                          4       1    2s                0.698825       0.544736

                          5       1    9px               0.888026       1.228774
                          5       1    9py               0.888026       1.228774
                          5       1    9pz               0.888026       1.228774

                          6       1   13dx2              1.305667       2.624922
                          6       1   13dxy              1.305667       4.546498
                          6       1   13dxz              1.305667       4.546498
                          6       1   13dy2              1.305667       2.624922
                          6       1   13dyz              1.305667       4.546498
                          6       1   13dz2              1.305667       2.624922

                          7       1   15fx3              1.485649       3.587285
                          7       1   15fx2y             1.485649       8.021413
                          7       1   15fx2z             1.485649       8.021413
                          7       1   15fxy2             1.485649       8.021413
                          7       1   15fxyz             1.485649      13.893495
                          7       1   15fxz2             1.485649       8.021413
                          7       1   15fy3              1.485649       3.587285
                          7       1   15fy2z             1.485649       8.021413
                          7       1   15fyz2             1.485649       8.021413
                          7       1   15fz3              1.485649       3.587285

                          8       1    3s                1.997891       1.197675

                          9       1   10px               3.536276       6.912304
                          9       1   10py               3.536276       6.912304
                          9       1   10pz               3.536276       6.912304

                         10       1   14dx2              5.998130      37.838790
                         10       1   14dxy              5.998130      65.538708
                         10       1   14dxz              5.998130      65.538708
                         10       1   14dy2              5.998130      37.838790
                         10       1   14dyz              5.998130      65.538708
                         10       1   14dz2              5.998130      37.838790

                         11       1    4s                6.227396       2.809571

                         12       1   11px              13.787974      37.871774
                         12       1   11py              13.787974      37.871774
                         12       1   11pz              13.787974      37.871774

                         13       1    5s               18.637753       6.393008

                         14       1    6s               55.158153      14.425052

                         15       1    7s              162.662525      32.462034

       Atomic covalent radius [Angstrom]:                                  0.730

       Atomic van der Waals radius [Angstrom]:                             1.520

     The atoms of this atomic kind are PAW atoms (GAPW):
       Hard Gaussian function radius:                                      1.512
       Rho0 radius:                                                        1.512
       Maximum GTO radius used for PAW projector construction:            24.566

     GAPW Soft Basis Set                                 aug-DZVP-MOLOPT-ae_soft

       Number of orbital shell sets:                                           2
       Number of orbital shells:                                              10
       Number of primitive Cartesian functions:                                6
       Number of Cartesian basis functions:                                   35
       Number of spherical basis functions:                                   30
       Norm type:                                                              2

       Normalised Cartesian orbitals:

                        Set   Shell   Orbital            Exponent    Coefficient

                          1       1    2s                0.090000       0.120905
                                                         0.191936      -0.019521
                                                         0.750068       0.059582
                                                         2.907977       0.000000

                          1       2    3px               0.090000       0.000000
                                                         0.191936       0.023686
                                                         0.750068       0.626550
                                                         2.907977       2.082711
                          1       2    3py               0.090000       0.000000
                                                         0.191936       0.023686
                                                         0.750068       0.626550
                                                         2.907977       2.082711
                          1       2    3pz               0.090000       0.000000
                                                         0.191936       0.023686
                                                         0.750068       0.626550
                                                         2.907977       2.082711

                          1       3    4px               0.090000       0.000000
                                                         0.191936       0.196557
                                                         0.750068      -0.157257
                                                         2.907977      -0.566756
                          1       3    4py               0.090000       0.000000
                                                         0.191936       0.196557
                                                         0.750068      -0.157257
                                                         2.907977      -0.566756
                          1       3    4pz               0.090000       0.000000
                                                         0.191936       0.196557
                                                         0.750068      -0.157257
                                                         2.907977      -0.566756

                          1       4    5px               0.090000       0.020606
                                                         0.191936       0.124186
                                                         0.750068       0.098287
                                                         2.907977       0.000000
                          1       4    5py               0.090000       0.020606
                                                         0.191936       0.124186
                                                         0.750068       0.098287
                                                         2.907977       0.000000
                          1       4    5pz               0.090000       0.020606
                                                         0.191936       0.124186
                                                         0.750068       0.098287
                                                         2.907977       0.000000

                          1       5    4dx2              0.090000       0.000000
                                                         0.191936       0.030414
                                                         0.750068       0.724129
                                                         2.907977       1.586204
                          1       5    4dxy              0.090000       0.000000
                                                         0.191936       0.052678
                                                         0.750068       1.254227
                                                         2.907977       2.747386
                          1       5    4dxz              0.090000       0.000000
                                                         0.191936       0.052678
                                                         0.750068       1.254227
                                                         2.907977       2.747386
                          1       5    4dy2              0.090000       0.000000
                                                         0.191936       0.030414
                                                         0.750068       0.724129
                                                         2.907977       1.586204
                          1       5    4dyz              0.090000       0.000000
                                                         0.191936       0.052678
                                                         0.750068       1.254227
                                                         2.907977       2.747386
                          1       5    4dz2              0.090000       0.000000
                                                         0.191936       0.030414
                                                         0.750068       0.724129
                                                         2.907977       1.586204

                          1       6    5dx2              0.090000      -0.010181
                                                         0.191936       0.018957
                                                         0.750068       0.933882
                                                         2.907977       0.008471
                          1       6    5dxy              0.090000      -0.017634
                                                         0.191936       0.032834
                                                         0.750068       1.617531
                                                         2.907977       0.014671
                          1       6    5dxz              0.090000      -0.017634
                                                         0.191936       0.032834
                                                         0.750068       1.617531
                                                         2.907977       0.014671
                          1       6    5dy2              0.090000      -0.010181
                                                         0.191936       0.018957
                                                         0.750068       0.933882
                                                         2.907977       0.008471
                          1       6    5dyz              0.090000      -0.017634
                                                         0.191936       0.032834
                                                         0.750068       1.617531
                                                         2.907977       0.014671
                          1       6    5dz2              0.090000      -0.010181
                                                         0.191936       0.018957
                                                         0.750068       0.933882
                                                         2.907977       0.008471

                          1       7    5fx3              0.090000       0.003073
                                                         0.191936       0.017866
                                                         0.750068       0.208981
                                                         2.907977      -1.809714
                          1       7    5fx2y             0.090000       0.006871
                                                         0.191936       0.039950
                                                         0.750068       0.467295
                                                         2.907977      -4.046643
                          1       7    5fx2z             0.090000       0.006871
                                                         0.191936       0.039950
                                                         0.750068       0.467295
                                                         2.907977      -4.046643
                          1       7    5fxy2             0.090000       0.006871
                                                         0.191936       0.039950
                                                         0.750068       0.467295
                                                         2.907977      -4.046643
                          1       7    5fxyz             0.090000       0.011901
                                                         0.191936       0.069196
                                                         0.750068       0.809378
                                                         2.907977      -7.008992
                          1       7    5fxz2             0.090000       0.006871
                                                         0.191936       0.039950
                                                         0.750068       0.467295
                                                         2.907977      -4.046643
                          1       7    5fy3              0.090000       0.003073
                                                         0.191936       0.017866
                                                         0.750068       0.208981
                                                         2.907977      -1.809714
                          1       7    5fy2z             0.090000       0.006871
                                                         0.191936       0.039950
                                                         0.750068       0.467295
                                                         2.907977      -4.046643
                          1       7    5fyz2             0.090000       0.006871
                                                         0.191936       0.039950
                                                         0.750068       0.467295
                                                         2.907977      -4.046643
                          1       7    5fz3              0.090000       0.003073
                                                         0.191936       0.017866
                                                         0.750068       0.208981
                                                         2.907977      -1.809714

                          2       1    1s                0.293338      -0.001581
                                                         0.941883       0.076823

                          2       2    2s                0.293338       0.124568
                                                         0.941883       0.386056

                          2       3    3s                0.293338       0.411906
                                                         0.941883      -0.735854

     AE Potential information for                                            ALL

       Description:                                       All-electron potential
                                          Krack, Parrinello, PCCP 2, 2105 (2000)

       Gaussian exponent of the core charge distribution:               8.154466
       Electronic configuration (s p d ...):                           4   4   0


 MOLECULE KIND INFORMATION


 All atoms are their own molecule, skipping detailed information


 TOTAL NUMBERS AND MAXIMUM NUMBERS

  Total number of            - Atomic kinds:                                   5
                             - Atoms:                                         18
                             - Shell sets:                                    29
                             - Shells:                                       142
                             - Primitive Cartesian functions:                172
                             - Cartesian basis functions:                    426
                             - Spherical basis functions:                    376

  Maximum angular momentum of the orbital basis functions:                     3


 MODULE QUICKSTEP: ATOMIC COORDINATES IN ANGSTROM

   Atom Kind Element         X             Y             Z       Z(eff)     Mass
      1    1 C     6     15.731023     14.149195     15.624162   6.0000  12.0107
      2    2 H     1     13.656109     14.641157     13.435380   1.0000   1.0079
      3    3 N     7     15.141338     15.409404     15.455703   7.0000  14.0067
      4    4 S    16     17.053908     13.567128     14.829881  16.0000  32.0650
      5    1 C     6     13.951844     14.333228     17.144547   6.0000  12.0107
      6    2 H     1     12.946092     13.904867     17.015715   1.0000   1.0079
      7    2 H     1     14.101344     14.550889     18.213725   1.0000   1.0079
      8    3 N     7     14.998671     13.512210     16.578663   7.0000  14.0067
      9    2 H     1     15.295621     12.610394     16.926405   1.0000   1.0079
     10    1 C     6     14.080245     15.621193     16.332269   6.0000  12.0107
     11    1 C     6     15.587177     16.403560     14.497106   6.0000  12.0107
     12    2 H     1     15.424911     17.389606     14.957559   1.0000   1.0079
     13    2 H     1     16.670542     16.257348     14.364164   1.0000   1.0079
     14    1 C     6     14.895420     16.343786     13.163073   6.0000  12.0107
     15    2 H     1     15.206439     17.131235     12.471206   1.0000   1.0079
     16    1 C     6     13.988763     15.447001     12.780464   6.0000  12.0107
     17    2 H     1     13.546869     15.484055     11.786275   1.0000   1.0079
     18    5 O     8     13.411978     16.630539     16.425852   8.0000  15.9994



 SCF PARAMETERS         Density guess:                                    ATOMIC
                        --------------------------------------------------------
                        max_scf:                                             500
                        max_scf_history:                                       0
                        max_diis:                                              4
                        --------------------------------------------------------
                        eps_scf:                                        1.00E-06
                        eps_scf_history:                                0.00E+00
                        eps_diis:                                       1.00E-01
                        eps_eigval:                                     1.00E-05
                        --------------------------------------------------------
                        level_shift [a.u.]:                             0.000000
                        added MOs                                       335    0
                        --------------------------------------------------------
                        Mixing method:                            BROYDEN_MIXING
                                                charge density mixing in g-space
                        --------------------------------------------------------
                        No outer SCF

 PW_GRID| Information for grid number                                          1
 PW_GRID| Grid distributed over                                   192 processors
 PW_GRID| Real space group dimensions                                   192    1
 PW_GRID| the grid is blocked:                                                NO
 PW_GRID| Cutoff [a.u.]                                                    250.0
 PW_GRID| spherical cutoff:                                                   NO
 PW_GRID|   Bounds   1           -202     202                Points:         405
 PW_GRID|   Bounds   2           -202     202                Points:         405
 PW_GRID|   Bounds   3           -202     202                Points:         405
 PW_GRID| Volume element (a.u.^3)  0.2743E-02     Volume (a.u.^3)    182205.0337
 PW_GRID| Grid span                                                    FULLSPACE
 PW_GRID|   Distribution                         Average         Max         Min
 PW_GRID|   G-Vectors                           345990.2      346275      345870
 PW_GRID|   G-Rays                                 854.3         855         854
 PW_GRID|   Real Space Points                   345990.2      492075      328050

 PW_GRID| Information for grid number                                          2
 PW_GRID| Number of the reference grid                                         1
 PW_GRID| Grid distributed over                                   192 processors
 PW_GRID| Real space group dimensions                                   192    1
 PW_GRID| the grid is blocked:                                                NO
 PW_GRID| Cutoff [a.u.]                                                     83.3
 PW_GRID| spherical cutoff:                                                   NO
 PW_GRID|   Bounds   1           -120     119                Points:         240
 PW_GRID|   Bounds   2           -120     119                Points:         240
 PW_GRID|   Bounds   3           -120     119                Points:         240
 PW_GRID| Volume element (a.u.^3)  0.1318E-01     Volume (a.u.^3)    182205.0337
 PW_GRID| Grid span                                                    FULLSPACE
 PW_GRID|   Distribution                         Average         Max         Min
 PW_GRID|   G-Vectors                            72000.0       72240       71760
 PW_GRID|   G-Rays                                 300.0         301         299
 PW_GRID|   Real Space Points                    72000.0      115200       57600

 PW_GRID| Information for grid number                                          3
 PW_GRID| Number of the reference grid                                         1
 PW_GRID| Grid distributed over                                   192 processors
 PW_GRID| Real space group dimensions                                    12   16
 PW_GRID| the grid is blocked:                                                NO
 PW_GRID| Cutoff [a.u.]                                                     27.8
 PW_GRID| spherical cutoff:                                                   NO
 PW_GRID|   Bounds   1            -67      67                Points:         135
 PW_GRID|   Bounds   2            -67      67                Points:         135
 PW_GRID|   Bounds   3            -67      67                Points:         135
 PW_GRID| Volume element (a.u.^3)  0.7406E-01     Volume (a.u.^3)    182205.0337
 PW_GRID| Grid span                                                    FULLSPACE
 PW_GRID|   Distribution                         Average         Max         Min
 PW_GRID|   G-Vectors                            12814.5       12960       12690
 PW_GRID|   G-Rays                                  94.9          96          94
 PW_GRID|   Real Space Points                    12814.5       14580       11880

 PW_GRID| Information for grid number                                          4
 PW_GRID| Number of the reference grid                                         1
 PW_GRID| Grid distributed over                                   192 processors
 PW_GRID| Real space group dimensions                                    12   16
 PW_GRID| the grid is blocked:                                                NO
 PW_GRID| Cutoff [a.u.]                                                      9.3
 PW_GRID| spherical cutoff:                                                   NO
 PW_GRID|   Bounds   1            -40      39                Points:          80
 PW_GRID|   Bounds   2            -40      39                Points:          80
 PW_GRID|   Bounds   3            -40      39                Points:          80
 PW_GRID| Volume element (a.u.^3)  0.3559         Volume (a.u.^3)    182205.0337
 PW_GRID| Grid span                                                    FULLSPACE
 PW_GRID|   Distribution                         Average         Max         Min
 PW_GRID|   G-Vectors                             2666.7        2800        2560
 PW_GRID|   G-Rays                                  33.3          35          32
 PW_GRID|   Real Space Points                     2666.7        2800        2400

 POISSON| Solver                                                         WAVELET
 POISSON| Wavelet| Scaling function                                           40
 POISSON| Periodicity                                                       NONE

 RS_GRID| Information for grid number                                          1
 RS_GRID|   Bounds   1           -202     202                Points:         405
 RS_GRID|   Bounds   2           -202     202                Points:         405
 RS_GRID|   Bounds   3           -202     202                Points:         405
 RS_GRID| Real space distribution over                                  4 groups
 RS_GRID| Real space distribution along direction                              1
 RS_GRID| Border size                                                         37
 RS_GRID| Real space distribution over                                  6 groups
 RS_GRID| Real space distribution along direction                              2
 RS_GRID| Border size                                                         37
 RS_GRID| Real space distribution over                                  8 groups
 RS_GRID| Real space distribution along direction                              3
 RS_GRID| Border size                                                         37
 RS_GRID|   Distribution                         Average         Max         Min
 RS_GRID|   Planes                                 175.2         176         175
 RS_GRID|   Distribution                         Average         Max         Min
 RS_GRID|   Planes                                 141.5         142         141
 RS_GRID|   Distribution                         Average         Max         Min
 RS_GRID|   Planes                                 124.6         125         124

 RS_GRID| Information for grid number                                          2
 RS_GRID|   Bounds   1           -120     119                Points:         240
 RS_GRID|   Bounds   2           -120     119                Points:         240
 RS_GRID|   Bounds   3           -120     119                Points:         240
 RS_GRID| Real space distribution over                                  4 groups
 RS_GRID| Real space distribution along direction                              1
 RS_GRID| Border size                                                         39
 RS_GRID| Real space distribution over                                  6 groups
 RS_GRID| Real space distribution along direction                              2
 RS_GRID| Border size                                                         39
 RS_GRID| Real space distribution over                                  8 groups
 RS_GRID| Real space distribution along direction                              3
 RS_GRID| Border size                                                         39
 RS_GRID|   Distribution                         Average         Max         Min
 RS_GRID|   Planes                                 138.0         138         138
 RS_GRID|   Distribution                         Average         Max         Min
 RS_GRID|   Planes                                 118.0         118         118
 RS_GRID|   Distribution                         Average         Max         Min
 RS_GRID|   Planes                                 108.0         108         108

 RS_GRID| Information for grid number                                          3
 RS_GRID|   Bounds   1            -67      67                Points:         135
 RS_GRID|   Bounds   2            -67      67                Points:         135
 RS_GRID|   Bounds   3            -67      67                Points:         135
 RS_GRID| Real space fully replicated
 RS_GRID| Group size                                                           1

 RS_GRID| Information for grid number                                          4
 RS_GRID|   Bounds   1            -40      39                Points:          80
 RS_GRID|   Bounds   2            -40      39                Points:          80
 RS_GRID|   Bounds   3            -40      39                Points:          80
 RS_GRID| Real space fully replicated
 RS_GRID| Group size                                                           1

  HFX_INFO| Replica ID:                                                        1
  HFX_INFO| FRACTION:                                               0.2500000000
  HFX_INFO| Interaction Potential:                                       COULOMB
  HFX_INFO| EPS_SCHWARZ:                                                 1.0E-10
  HFX_INFO| EPS_SCHWARZ_FORCES                                           1.0E-08
  HFX_INFO| EPS_STORAGE_SCALING:                                         1.0E+00
  HFX_INFO| NBINS:                                                            64
  HFX_INFO| BLOCK_SIZE:                                                        1
  HFX_INFO| Number of periodic shells considered:                           NONE
  HFX_INFO| Number of periodic cells considered:                            NONE


 OVERLAP MATRIX CONDITION NUMBER
 1-Norm Condition Number (Estimate)
   CN : |A|*|A^-1|:  3.847E+001 *  6.071E+004   = 2.336E+006  Log(1-CN):  6.3684
 1-Norm and 2-Norm Condition Numbers using Diagonalization
   CN : |A|*|A^-1|:  3.847E+001 *  6.068E+004   = 2.335E+006  Log(1-CN):  6.3682
   CN : max/min ev:  1.250E+001 /  5.563E-005   = 2.247E+005  Log(2-CN):  5.3517

 Extrapolation method: initial_guess

 Atomic guess: The first density matrix is obtained in terms of atomic orbitals
               and electronic configurations assigned to each atomic kind

 Guess for atomic kind: C

 Electronic structure
    Total number of core electrons                                          0.00
    Total number of valence electrons                                       6.00
    Total number of electrons                                               6.00
    Multiplicity                                                   not specified
    S      2.00  2.00
    P      2.00


 *******************************************************************************
                  Iteration          Convergence                     Energy [au]
 *******************************************************************************
                          1        0.133902                     -37.363061759844
                          2        0.102325                     -37.368472442707
                          3        0.860737E-03                 -37.376215693871
                          4        0.849047E-04                 -37.376216293501
                          5        0.219397E-06                 -37.376216298714

 Energy components [Hartree]           Total Energy ::          -37.376216298714
                                        Band Energy ::          -21.245708131867
                                     Kinetic Energy ::           37.464666877769
                                   Potential Energy ::          -74.840883176484
                                      Virial (-V/T) ::            1.997639093407
                                        Core Energy ::          -50.271057779086
                                          XC Energy ::           -4.736056292831
                                     Coulomb Energy ::           17.630897773203

 Orbital energies  State     L     Occupation   Energy[a.u.]          Energy[eV]

                       1     0          2.000      -9.941022         -270.508975
                       2     0          2.000      -0.490185          -13.338601

                       1     1          2.000      -0.191647           -5.214984


 Total Electron Density at R=0:                                       116.283880

 Guess for atomic kind: H

 Electronic structure
    Total number of core electrons                                          0.00
    Total number of valence electrons                                       1.00
    Total number of electrons                                               1.00
    Multiplicity                                                   not specified
    S      1.00


 *******************************************************************************
                  Iteration          Convergence                     Energy [au]
 *******************************************************************************
                          1        0.100530E-01                  -0.443985550189
                          2        0.945329E-03                  -0.444090029920
                          3        0.103025E-03                  -0.444092117382
                          4        0.802727E-07                  -0.444092129626

 Energy components [Hartree]           Total Energy ::           -0.444092129626
                                        Band Energy ::           -0.233486998571
                                     Kinetic Energy ::            0.420413643923
                                   Potential Energy ::           -0.864505773549
                                      Virial (-V/T) ::            2.056321877382
                                        Core Energy ::           -0.493965249450
                                          XC Energy ::           -0.230662915809
                                     Coulomb Energy ::            0.280536035634

 Orbital energies  State     L     Occupation   Energy[a.u.]          Energy[eV]

                       1     0          1.000      -0.233487           -6.353504


 Total Electron Density at R=0:                                         0.246678

 Guess for atomic kind: N

 Electronic structure
    Total number of core electrons                                          0.00
    Total number of valence electrons                                       7.00
    Total number of electrons                                               7.00
    Multiplicity                                                   not specified
    S      2.00  2.00
    P      3.00


 *******************************************************************************
                  Iteration          Convergence                     Energy [au]
 *******************************************************************************
                          1        0.369390                     -53.855844969821
                          2        0.273078                     -53.870170065147
                          3        0.611788E-02                 -53.916370559561
                          4        0.258022E-03                 -53.916388709621
                          5        0.100264E-04                 -53.916388753242
                          6        0.664221E-07                 -53.916388753301

 Energy components [Hartree]           Total Energy ::          -53.916388753301
                                        Band Energy ::          -30.277671893433
                                     Kinetic Energy ::           53.943449639882
                                   Potential Energy ::         -107.859838393183
                                      Virial (-V/T) ::            1.999498347125
                                        Core Energy ::          -73.381511064535
                                          XC Energy ::           -6.114835262346
                                     Coulomb Energy ::           25.579957573581

 Orbital energies  State     L     Occupation   Energy[a.u.]          Energy[eV]

                       1     0          2.000     -14.050793         -382.341534
                       2     0          2.000      -0.664480          -18.081407

                       1     1          3.000      -0.282375           -7.683823


 Total Electron Density at R=0:                                       189.469012

 Guess for atomic kind: S

 Electronic structure
    Total number of core electrons                                          0.00
    Total number of valence electrons                                      16.00
    Total number of electrons                                              16.00
    Multiplicity                                                   not specified
    S      2.00  2.00  2.00
    P      6.00  4.00


 *******************************************************************************
                  Iteration          Convergence                     Energy [au]
 *******************************************************************************
                          1        0.508992                    -396.532503655990
                          2        0.158529                    -396.545404359598
                          3        0.440887E-01                -396.549661500960
                          4        0.692753E-03                -396.550151447682
                          5        0.988290E-05                -396.550151571718
                          6        0.574825E-08                -396.550151571747

 Energy components [Hartree]           Total Energy ::         -396.550151571747
                                        Band Energy ::         -227.617519441937
                                     Kinetic Energy ::          396.442273376157
                                   Potential Energy ::         -792.992424947904
                                      Virial (-V/T) ::            2.000272115773
                                        Core Energy ::         -549.094947582507
                                          XC Energy ::          -24.160563523673
                                     Coulomb Energy ::          176.705359534434

 Orbital energies  State     L     Occupation   Energy[a.u.]          Energy[eV]

                       1     0          2.000     -87.724168        -2387.096014
                       2     0          2.000      -7.695851         -209.414757
                       3     0          2.000      -0.626682          -17.052872

                       1     1          6.000      -5.751215         -156.498516
                       2     1          4.000      -0.254207           -6.917329


 Total Electron Density at R=0:                                      2398.079628

 Guess for atomic kind: O

 Electronic structure
    Total number of core electrons                                          0.00
    Total number of valence electrons                                       8.00
    Total number of electrons                                               8.00
    Multiplicity                                                   not specified
    S      2.00  2.00
    P      4.00


 *******************************************************************************
                  Iteration          Convergence                     Energy [au]
 *******************************************************************************
                          1        0.848674                     -74.203659346590
                          2        0.676538                     -74.224350300929
                          3        0.118146E-01                 -74.325384117638
                          4        0.875023E-03                 -74.325411956579
                          5        0.262407E-04                 -74.325412100097
                          6        0.953985E-07                 -74.325412100225

 Energy components [Hartree]           Total Energy ::          -74.325412100225
                                        Band Energy ::          -40.703914598336
                                     Kinetic Energy ::           74.466117831459
                                   Potential Energy ::         -148.791529931684
                                      Virial (-V/T) ::            1.998110473121
                                        Core Energy ::         -102.666843544964
                                          XC Energy ::           -7.743421966388
                                     Coulomb Energy ::           36.084853411128

 Orbital energies  State     L     Occupation   Energy[a.u.]          Energy[eV]

                       1     0          2.000     -18.799663         -511.564844
                       2     0          2.000      -0.852501          -23.197720

                       1     1          4.000      -0.349897           -9.521179


 Total Electron Density at R=0:                                       292.094851
 Re-scaling the density matrix to get the right number of electrons
                  # Electrons              Trace(P)               Scaling factor
                           82                82.000                        1.000

 Number of electrons:                                                         82
 Number of occupied orbitals:                                                 41
 Number of molecular orbitals:                                               376

 Number of orbital functions:                                                376
 Number of independent orbital functions:                                    376


 SCF WAVEFUNCTION OPTIMIZATION

  Step     Update method      Time    Convergence         Total energy    Change
  ------------------------------------------------------------------------------

  HFX_MEM_INFO| Est. max. program size before HFX [MiB]:                     784
  HFX_MEM_INFO| Number of cart. primitive ERI's calculated:         303657197517
  HFX_MEM_INFO| Number of sph. ERI's calculated:                      2887396729
  HFX_MEM_INFO| Number of sph. ERI's stored in-core:                  2887396729
  HFX_MEM_INFO| Number of sph. ERI's stored on disk:                           0
  HFX_MEM_INFO| Number of sph. ERI's calculated on the fly:                    0
  HFX_MEM_INFO| Total memory consumption ERI's RAM [MiB]:                  10196
  HFX_MEM_INFO| Whereof max-vals [MiB]:                                        6
  HFX_MEM_INFO| Total compression factor ERI's RAM:                         2.16
  HFX_MEM_INFO| Total memory consumption ERI's disk [MiB]:                     0
  HFX_MEM_INFO| Total compression factor ERI's disk:                        0.00
  HFX_MEM_INFO| Size of density/Fock matrix [MiB]:                             0
  HFX_MEM_INFO| Size of buffers [MiB]:                                        24
  HFX_MEM_INFO| Est. max. program size after HFX  [MiB]:                    1350

     1 NoMix/Diag. 0.10E+00   28.9     7.75109468      -817.8698545981 -8.18E+02
     2 Broy./Diag. 0.10E+00    1.6     0.61226473      -808.3021472091  9.57E+00
     3 Broy./Diag. 0.10E+00    0.8     0.02781970      -807.6685154613  6.34E-01
     4 Broy./Diag. 0.10E+00    0.9     1.16585681      -810.6923048279 -3.02E+00
     5 Broy./Diag. 0.10E+00    0.9     0.22969395      -813.1007958897 -2.41E+00
     6 Broy./Diag. 0.10E+00    0.9     0.06932200      -812.7150224637  3.86E-01
     7 Broy./Diag. 0.10E+00    0.9     0.30379318      -813.5565952004 -8.42E-01
     8 Broy./Diag. 0.10E+00    0.9     0.14706586      -814.2249829393 -6.68E-01
     9 Broy./Diag. 0.10E+00    1.0     0.05803074      -814.0798121470  1.45E-01
    10 Broy./Diag. 0.10E+00    0.8     0.03415163      -814.4507077544 -3.71E-01
    11 Broy./Diag. 0.10E+00    0.9     0.02018392      -814.8521536177 -4.01E-01
    12 Broy./Diag. 0.10E+00    0.9     0.04615746      -814.8692867587 -1.71E-02
    13 Broy./Diag. 0.10E+00    0.8     0.05845288      -814.9701616083 -1.01E-01
    14 Broy./Diag. 0.10E+00    0.9     0.00709767      -815.1761477803 -2.06E-01
    15 Broy./Diag. 0.10E+00    0.9     0.00521771      -815.2662103980 -9.01E-02
    16 Broy./Diag. 0.10E+00    1.0     0.01916654      -815.2493565993  1.69E-02
    17 Broy./Diag. 0.10E+00    0.9     0.00298158      -815.2274647132  2.19E-02
    18 Broy./Diag. 0.10E+00    0.9     0.00444324      -815.2434789886 -1.60E-02
    19 Broy./Diag. 0.10E+00    0.8     0.00337196      -815.2662257784 -2.27E-02
    20 Broy./Diag. 0.10E+00    0.9     0.00575541      -815.2930237042 -2.68E-02
    21 Broy./Diag. 0.10E+00    0.9     0.00723034      -815.3088683585 -1.58E-02
    22 Broy./Diag. 0.10E+00    0.9     0.00940289      -815.2925769837  1.63E-02
    23 Broy./Diag. 0.10E+00    0.9     0.00434642      -815.2919440648  6.33E-04
    24 Broy./Diag. 0.10E+00    0.9     0.00595535      -815.2934206826 -1.48E-03
    25 Broy./Diag. 0.10E+00    0.9     0.00196904      -815.2964620884 -3.04E-03
    26 Broy./Diag. 0.10E+00    0.9     0.00162478      -815.3026102655 -6.15E-03
    27 Broy./Diag. 0.10E+00    0.9     0.00384567      -815.2990056924  3.60E-03
    28 Broy./Diag. 0.10E+00    0.9     0.00176148      -815.2957093463  3.30E-03
    29 Broy./Diag. 0.10E+00    0.8     0.00109364      -815.2994758351 -3.77E-03
    30 Broy./Diag. 0.10E+00    0.9     0.00094005      -815.2975960787  1.88E-03
    31 Broy./Diag. 0.10E+00    0.9     0.00109893      -815.2941468919  3.45E-03
    32 Broy./Diag. 0.10E+00    0.9     0.00053092      -815.2958060685 -1.66E-03
    33 Broy./Diag. 0.10E+00    0.9     0.00137590      -815.2989039679 -3.10E-03
    34 Broy./Diag. 0.10E+00    0.8     0.00022159      -815.3031744634 -4.27E-03
    35 Broy./Diag. 0.10E+00    0.8     0.00031697      -815.3051235317 -1.95E-03
    36 Broy./Diag. 0.10E+00    0.9     0.00101605      -815.3031776246  1.95E-03
    37 Broy./Diag. 0.10E+00    0.9     0.00052791      -815.3035388253 -3.61E-04
    38 Broy./Diag. 0.10E+00    0.9     0.00073392      -815.3055693297 -2.03E-03
    39 Broy./Diag. 0.10E+00    0.9     0.00052626      -815.3034809965  2.09E-03
    40 Broy./Diag. 0.10E+00    0.9     0.00044541      -815.3008229473  2.66E-03
    41 Broy./Diag. 0.10E+00    0.9     0.00014144      -815.3004138614  4.09E-04
    42 Broy./Diag. 0.10E+00    0.8     0.00033282      -815.3004933411 -7.95E-05
    43 Broy./Diag. 0.10E+00    0.8     0.00073768      -815.3009689632 -4.76E-04
    44 Broy./Diag. 0.10E+00    0.9     0.00018196      -815.3011655136 -1.97E-04
    45 Broy./Diag. 0.10E+00    0.8     0.00026964      -815.3014164792 -2.51E-04
    46 Broy./Diag. 0.10E+00    0.9     0.00008754      -815.3016965085 -2.80E-04
    47 Broy./Diag. 0.10E+00    0.9     0.00008301      -815.3014446753  2.52E-04
    48 Broy./Diag. 0.10E+00    0.9     0.00043223      -815.3011541571  2.91E-04
    49 Broy./Diag. 0.10E+00    0.9     0.00009956      -815.3010442893  1.10E-04
    50 Broy./Diag. 0.10E+00    0.9     0.00008152      -815.3010179648  2.63E-05
    51 Broy./Diag. 0.10E+00    0.9     0.00004093      -815.3010398923 -2.19E-05
    52 Broy./Diag. 0.10E+00    0.8     0.00002614      -815.3010046915  3.52E-05
    53 Broy./Diag. 0.10E+00    0.8     0.00005726      -815.3009136153  9.11E-05
    54 Broy./Diag. 0.10E+00    0.9     0.00002916      -815.3008973885  1.62E-05
    55 Broy./Diag. 0.10E+00    0.9     0.00008810      -815.3008313649  6.60E-05
    56 Broy./Diag. 0.10E+00    0.9     0.00001380      -815.3007349281  9.64E-05
    57 Broy./Diag. 0.10E+00    0.9     0.00001883      -815.3006914353  4.35E-05
    58 Broy./Diag. 0.10E+00    0.9     0.00001332      -815.3006915757 -1.40E-07
    59 Broy./Diag. 0.10E+00    0.8     0.00002850      -815.3006753432  1.62E-05
    60 Broy./Diag. 0.10E+00    0.8     0.00000487      -815.3006394440  3.59E-05
    61 Broy./Diag. 0.10E+00    0.9     0.00002029      -815.3006511511 -1.17E-05
    62 Broy./Diag. 0.10E+00    0.9     0.00002676      -815.3006551192 -3.97E-06
    63 Broy./Diag. 0.10E+00    0.9     0.00000850      -815.3006483003  6.82E-06
    64 Broy./Diag. 0.10E+00    0.9     0.00000312      -815.3006565936 -8.29E-06
    65 Broy./Diag. 0.10E+00    0.9     0.00001731      -815.3006431756  1.34E-05
    66 Broy./Diag. 0.10E+00    0.8     0.00000980      -815.3006309919  1.22E-05
    67 Broy./Diag. 0.10E+00    0.9     0.00000264      -815.3006372860 -6.29E-06
    68 Broy./Diag. 0.10E+00    0.9     0.00000267      -815.3006420720 -4.79E-06
    69 Broy./Diag. 0.10E+00    0.8     0.00000698      -815.3006505076 -8.44E-06
    70 Broy./Diag. 0.10E+00    0.9     0.00000123      -815.3006606314 -1.01E-05
    71 Broy./Diag. 0.10E+00    0.9     0.00000363      -815.3006530860  7.55E-06
    72 Broy./Diag. 0.10E+00    1.0     0.00000382      -815.3006492775  3.81E-06
    73 Broy./Diag. 0.10E+00    0.9     0.00000061      -815.3006551642 -5.89E-06

  *** SCF run converged in    73 steps ***


  Electronic density on regular grids:        -57.0761163949       24.9238836051
  Core density on regular grids:               82.0000000000       -0.0000000000
  Hard and soft densities (Lebedev):         -491.8968409275     -466.9729573197
  Total Rho_soft + Rho1_hard - Rho1_soft      -82.0000000027
  Total charge density (r-space):              -0.0000000027
  Total Rho_soft + Rho0_soft (g-space):        -0.0000000065

  Overlap energy of the core charge distribution:               0.00001296514708
  Self energy of the core charge distribution:               -526.41303722834016
  Core Hamiltonian energy:                                   -289.30161366500732
  Hartree energy:                                             168.92134018348037
  Exchange-correlation energy:                                -20.27672456977581
  Hartree-Fock Exchange energy:                               -20.05858699393599

  GAPW| Exc from hard and soft atomic rho1:                   -42.57886505806228
  GAPW| local Eh = 1 center integrals:                        -85.59318079772370

  Total energy:                                              -815.30065516421769

 !-----------------------------------------------------------------------------!
                     Mulliken Population Analysis

 #  Atom  Element  Kind  Atomic population                           Net charge
       1     C        1          5.177303                              0.822697
       2     H        2          0.855070                              0.144930
       3     N        3          7.590123                             -0.590123
       4     S        4         16.483609                             -0.483609
       5     C        1          5.909296                              0.090704
       6     H        2          0.744361                              0.255639
       7     H        2          0.758939                              0.241061
       8     N        3          8.370388                             -1.370388
       9     H        2          0.036244                              0.963756
      10     C        1          4.919476                              1.080524
      11     C        1          5.885671                              0.114329
      12     H        2          0.738313                              0.261687
      13     H        2          0.836618                              0.163382
      14     C        1          6.080987                             -0.080987
      15     H        2          0.931933                              0.068067
      16     C        1          6.134995                             -0.134995
      17     H        2          0.950663                              0.049337
      18     O        5          9.596012                             -1.596012
 # Total charge                             82.000000                 -0.000000

 !-----------------------------------------------------------------------------!

 !-----------------------------------------------------------------------------!
                           Hirshfeld Charges

  #Atom  Element  Kind  Ref Charge     Population                    Net charge
      1       C      1       6.000          5.445                         0.555
      2       H      2       1.000          0.506                         0.494
      3       N      3       7.000          7.167                        -0.167
      4       S      4      16.000         16.813                        -0.813
      5       C      1       6.000          6.763                        -0.763
      6       H      2       1.000          0.505                         0.495
      7       H      2       1.000          0.505                         0.495
      8       N      3       7.000          7.572                        -0.572
      9       H      2       1.000          0.431                         0.569
     10       C      1       6.000          5.666                         0.334
     11       C      1       6.000          6.672                        -0.672
     12       H      2       1.000          0.507                         0.493
     13       H      2       1.000          0.502                         0.498
     14       C      1       6.000          6.482                        -0.482
     15       H      2       1.000          0.507                         0.493
     16       C      1       6.000          6.968                        -0.968
     17       H      2       1.000          0.503                         0.497
     18       O      5       8.000          8.468                        -0.468

  Total Charge                                                            0.018
 !-----------------------------------------------------------------------------!
  
 -------------------------------------------------------------------------------
 -                                                                             -
 -                          BANDSTRUCTURE CALCULATION                          -
 -                                                                             -
 -------------------------------------------------------------------------------
  
 Number of occupied molecular orbitals (MOs) = Number of occupied bands       41
 Number of unoccupied (= virtual) MOs = Number of unoccupied bands           335
 Number of Gaussian basis functions for MOs                                  376
 K-point mesh for the density of states (DOS) and the self-energy      1   1   1
  
 -------------------------------------------------------------------------------
 -                                                                             -
 -                                GW CALCULATION                               -
 -                                                                             -
 -------------------------------------------------------------------------------
  
 Input: Number of time/freq. points                                           30
 Input: ω_max for fitting Σ(iω) (eV)                                        10.0
 Input: Filter threshold for sparse tensor operations                    1.0E-11
 Input: Apply Hedin shift                                                      F
  
 Number of auxiliary Gaussian basis functions for χ, ε, W                    471
 Cutoff radius for the truncated Coulomb operator in Σ^x:               2645.9 Å
 Cutoff radius for the truncated Coulomb operator in RI metric:            9.0 Å
 Regularization parameter of RI                                          1.0E-02
 Regularization parameter of minimax grids                               1.0E-06
 Lattice sum size for V(k):                                                    3
  
 K-point mesh 1 for χ, ε, W                                            1   1   1
 K-point mesh 2 for χ, ε, W (for k-point extrapolation of W)           1   1   1
 Approximate the k-point extrapolation                                         F
 Group size for tensor operations                                            192
 
 Computed 3-center integrals (µν|P), execution time                        0.2 s
 Percentage of non-zero (µν|P)                                         100.000 %
 Max. distance between µ,ν in non-zero (µν|P)                              6.5 A
 Required memory if storing all 3-center integrals (µν|P)                   0 GB
 
 Number of i and j atoms in M_λνP(τ), N_νλQ(τ):                              153
 Number of inner loop atoms for µ in M_λνP = sum_µ (µν|P) G_µλ                18
 
 SCF direct band gap (eV)                                                   5.33
 Max. SCF eigval diff. (eV)                                             54488.43
 E-Range for minimax grid                                               10222.54
 Number of Padé parameters for analytic continuation:                          5
 
 Computed χ(iτ,k=0) for time point            1 / 30,    Execution time    0.3 s
 Computed χ(iτ,k=0) for time point            2 / 30,    Execution time    0.2 s
 Computed χ(iτ,k=0) for time point            3 / 30,    Execution time    0.2 s
 Computed χ(iτ,k=0) for time point            4 / 30,    Execution time    0.2 s
 Computed χ(iτ,k=0) for time point            5 / 30,    Execution time    0.2 s
 Computed χ(iτ,k=0) for time point            6 / 30,    Execution time    0.2 s
 Computed χ(iτ,k=0) for time point            7 / 30,    Execution time    0.2 s
 Computed χ(iτ,k=0) for time point            8 / 30,    Execution time    0.2 s
 Computed χ(iτ,k=0) for time point            9 / 30,    Execution time    0.2 s
 Computed χ(iτ,k=0) for time point           10 / 30,    Execution time    0.2 s
 Computed χ(iτ,k=0) for time point           11 / 30,    Execution time    0.2 s
 Computed χ(iτ,k=0) for time point           12 / 30,    Execution time    0.2 s
 Computed χ(iτ,k=0) for time point           13 / 30,    Execution time    0.2 s
 Computed χ(iτ,k=0) for time point           14 / 30,    Execution time    0.2 s
 Computed χ(iτ,k=0) for time point           15 / 30,    Execution time    0.2 s
 Computed χ(iτ,k=0) for time point           16 / 30,    Execution time    0.2 s
 Computed χ(iτ,k=0) for time point           17 / 30,    Execution time    0.3 s
 Computed χ(iτ,k=0) for time point           18 / 30,    Execution time    0.2 s
 Computed χ(iτ,k=0) for time point           19 / 30,    Execution time    0.2 s
 Computed χ(iτ,k=0) for time point           20 / 30,    Execution time    0.2 s
 Computed χ(iτ,k=0) for time point           21 / 30,    Execution time    0.2 s
 Computed χ(iτ,k=0) for time point           22 / 30,    Execution time    0.2 s
 Computed χ(iτ,k=0) for time point           23 / 30,    Execution time    0.2 s
 Computed χ(iτ,k=0) for time point           24 / 30,    Execution time    0.2 s
 Computed χ(iτ,k=0) for time point           25 / 30,    Execution time    0.2 s
 Computed χ(iτ,k=0) for time point           26 / 30,    Execution time    0.2 s
 Computed χ(iτ,k=0) for time point           27 / 30,    Execution time    0.2 s
 Computed χ(iτ,k=0) for time point           28 / 30,    Execution time    0.2 s
 Computed χ(iτ,k=0) for time point           29 / 30,    Execution time    0.2 s
 Computed χ(iτ,k=0) for time point           30 / 30,    Execution time    0.2 s
 
 Computed W(iτ,k) for k-point batch           1 /  1,    Execution time    1.9 s
 
 Computed Σ^x(k=0),                                      Execution time    0.4 s
 
 Computed Σ^c(iτ,k=0) for time point          1 / 30,    Execution time    0.3 s
 Computed Σ^c(iτ,k=0) for time point          2 / 30,    Execution time    0.3 s
 Computed Σ^c(iτ,k=0) for time point          3 / 30,    Execution time    0.4 s
 Computed Σ^c(iτ,k=0) for time point          4 / 30,    Execution time    0.3 s
 Computed Σ^c(iτ,k=0) for time point          5 / 30,    Execution time    0.3 s
 Computed Σ^c(iτ,k=0) for time point          6 / 30,    Execution time    0.3 s
 Computed Σ^c(iτ,k=0) for time point          7 / 30,    Execution time    0.3 s
 Computed Σ^c(iτ,k=0) for time point          8 / 30,    Execution time    0.3 s
 Computed Σ^c(iτ,k=0) for time point          9 / 30,    Execution time    0.3 s
 Computed Σ^c(iτ,k=0) for time point         10 / 30,    Execution time    0.3 s
 Computed Σ^c(iτ,k=0) for time point         11 / 30,    Execution time    0.3 s
 Computed Σ^c(iτ,k=0) for time point         12 / 30,    Execution time    0.3 s
 Computed Σ^c(iτ,k=0) for time point         13 / 30,    Execution time    0.3 s
 Computed Σ^c(iτ,k=0) for time point         14 / 30,    Execution time    0.3 s
 Computed Σ^c(iτ,k=0) for time point         15 / 30,    Execution time    0.4 s
 Computed Σ^c(iτ,k=0) for time point         16 / 30,    Execution time    0.3 s
 Computed Σ^c(iτ,k=0) for time point         17 / 30,    Execution time    0.3 s
 Computed Σ^c(iτ,k=0) for time point         18 / 30,    Execution time    0.3 s
 Computed Σ^c(iτ,k=0) for time point         19 / 30,    Execution time    0.3 s
 Computed Σ^c(iτ,k=0) for time point         20 / 30,    Execution time    0.3 s
 Computed Σ^c(iτ,k=0) for time point         21 / 30,    Execution time    0.3 s
 Computed Σ^c(iτ,k=0) for time point         22 / 30,    Execution time    0.3 s
 Computed Σ^c(iτ,k=0) for time point         23 / 30,    Execution time    0.3 s
 Computed Σ^c(iτ,k=0) for time point         24 / 30,    Execution time    0.3 s
 Computed Σ^c(iτ,k=0) for time point         25 / 30,    Execution time    0.3 s
 Computed Σ^c(iτ,k=0) for time point         26 / 30,    Execution time    0.3 s
 Computed Σ^c(iτ,k=0) for time point         27 / 30,    Execution time    0.5 s
 Computed Σ^c(iτ,k=0) for time point         28 / 30,    Execution time    0.3 s
 Computed Σ^c(iτ,k=0) for time point         29 / 30,    Execution time    0.5 s
 Computed Σ^c(iτ,k=0) for time point         30 / 30,    Execution time    0.4 s
 
 Sparsity of Σ^c(iτ,k=0): Percentage of skipped atom pairs:                0.0 %

 
 SCF valence band maximum (eV):                                           -6.662
 SCF conduction band minimum (eV):                                        -1.331
 SCF indirect band gap (eV):                                               5.330
 SCF direct band gap (eV):                                                 5.330
 
 G0W0 valence band maximum (eV):                                          -8.143
 G0W0 conduction band minimum (eV):                                        0.614
 G0W0 indirect band gap (eV):                                              8.757
 G0W0 direct band gap (eV):                                                8.757
 
 Hartree-Fock with SCF orbitals valence band maximum (eV):                -9.050
 Hartree-Fock with SCF orbitals conduction band minimum (eV)               1.405
 Hartree-Fock with SCF orbitals indirect band gap (eV):                   10.455
 Hartree-Fock with SCF orbitals direct band gap (eV):                     10.455

 ENERGY| Total FORCE_EVAL ( QS ) energy [hartree]           -815.300655164217687

 -------------------------------------------------------------------------------
 -                                                                             -
 -                                DBCSR STATISTICS                             -
 -                                                                             -
 -------------------------------------------------------------------------------
 COUNTER                                    TOTAL       BLAS       SMM       ACC
 flops    34 x     9 x    24              2144448     100.0%      0.0%      0.0%     
 flops    34 x    34 x    24              4050624     100.0%      0.0%      0.0%     
 flops     9 x    34 x    24              6433344     100.0%      0.0%      0.0%     
 flops    30 x    34 x    24              7148160     100.0%      0.0%      0.0%     
 flops     9 x     9 x    24             10217664     100.0%      0.0%      0.0%     
 flops    34 x    30 x    24             25018560     100.0%      0.0%      0.0%     
 flops     9 x    30 x    24             31220640     100.0%      0.0%      0.0%     
 flops    34 x     9 x    32             31451904     100.0%      0.0%      0.0%     
 flops    30 x     9 x    24             36897120     100.0%      0.0%      0.0%     
 flops    34 x    34 x    32             59409152     100.0%      0.0%      0.0%     
 flops     9 x    34 x    32             94355712     100.0%      0.0%      0.0%     
 flops    30 x    34 x    32            104839680     100.0%      0.0%      0.0%     
 flops    30 x    30 x    24            141912000     100.0%      0.0%      0.0%     
 flops     9 x     9 x    32            149859072     100.0%      0.0%      0.0%     
 flops    34 x    30 x    32            366938880     100.0%      0.0%      0.0%     
 flops     9 x    30 x    32            457902720     100.0%      0.0%      0.0%     
 flops    30 x     9 x    32            541157760     100.0%      0.0%      0.0%     
 flops    30 x    30 x    32           2081376000     100.0%      0.0%      0.0%     
 flops inhomo. stacks                           0       0.0%      0.0%      0.0%
 flops total                         4.152333E+09     100.0%      0.0%      0.0%
 flops max/rank                    120.222240E+06     100.0%      0.0%      0.0%
 matmuls inhomo. stacks                         0       0.0%      0.0%      0.0%
 matmuls total                             149796     100.0%      0.0%      0.0%
 number of processed stacks                141912     100.0%      0.0%      0.0%
 average stack size                                     1.1       0.0       0.0
 marketing flops                   846.276352E+06
 -------------------------------------------------------------------------------
 # multiplications                             73
 max memory usage/rank              19.218153E+09
 # max total images/rank                        3
 # max 3D layers                                1
 # MPI messages exchanged                  616704
 MPI messages size (bytes):
  total size                         2.476908E+09
  min size                           0.000000E+00
  max size                          23.040000E+03
  average size                       4.016364E+03
 MPI breakdown and total messages size (bytes):
             size <=      128              365292                        0
       128 < size <=     8192              145051                710835456
      8192 < size <=    32768              106361               1766072064
     32768 < size <=   131072                   0                        0
    131072 < size <=  4194304                   0                        0
   4194304 < size <= 16777216                   0                        0
  16777216 < size                               0                        0
 -------------------------------------------------------------------------------

 *** WARNING in dbcsr_mm.F:301 :: Using a non-square number of MPI ranks ***
 *** might lead to poor performance. Used ranks: 192 Suggested: 196 400  ***

 -------------------------------------------------------------------------------
 -                                                                             -
 -                      DBCSR MESSAGE PASSING PERFORMANCE                      -
 -                                                                             -
 -------------------------------------------------------------------------------
 ROUTINE             CALLS      AVE VOLUME [Bytes]
 MP_Bcast               19                     12.
 MP_Allreduce          494                     10.
 MP_Alltoall          5466                 100373.
 MP_ISend             7008                   3525.
 MP_IRecv             7008                   3134.
 -------------------------------------------------------------------------------

 -------------------------------------------------------------------------------
 -                                                                             -
 -                                DBM STATISTICS                               -
 -                                                                             -
 -------------------------------------------------------------------------------
    M  x    N  x    K                                          COUNT     PERCENT
    ?  x    ?  x    ?                                         126738      45.65%
  ???  x   ??  x   ??                                          24200       8.72%
  ???  x    ?  x   ??                                          19360       6.97%
  ???  x   ??  x    ?                                          19360       6.97%
  ???  x    ?  x    ?                                          15488       5.58%
   ??  x   ??  x  ???                                          11500       4.14%
   ??  x   ??  x   ??                                          10050       3.62%
   ??  x    ?  x  ???                                           7040       2.54%
    ?  x   ??  x  ???                                           6680       2.41%
   ??  x  ???  x   ??                                           6510       2.34%
   ??  x  ???  x    ?                                           5208       1.88%
    ?  x    ?  x  ???                                           4624       1.67%
   ??  x   ??  x    ?                                           3720       1.34%
    ?  x   ??  x   ??                                           3350       1.21%
    ?  x  ???  x   ??                                           2170       0.78%
   ??  x    ?  x   ??                                           2160       0.78%
   ??  x   ??  x >999                                           1975       0.71%
    ?  x  ???  x    ?                                           1736       0.63%
   ??  x    ?  x >999                                           1400       0.50%
    ?  x   ??  x >999                                           1370       0.49%
    ?  x   ??  x    ?                                           1240       0.45%
    ?  x    ?  x >999                                           1036       0.37%
    ?  x    ?  x   ??                                            720       0.26%
 -------------------------------------------------------------------------------

 -------------------------------------------------------------------------------
 -                                                                             -
 -                                GRID STATISTICS                              -
 -                                                                             -
 -------------------------------------------------------------------------------
 LP    KERNEL             BACKEND                              COUNT     PERCENT
 3     collocate ortho    CPU                                   9620      16.36%
 3     integrate ortho    CPU                                   9620      16.36%
 6     collocate ortho    CPU                                   5328       9.06%
 6     integrate ortho    CPU                                   5328       9.06%
 4     collocate ortho    CPU                                   4514       7.68%
 4     integrate ortho    CPU                                   4514       7.68%
 0     collocate ortho    CPU                                   4144       7.05%
 1     collocate ortho    CPU                                   4144       7.05%
 0     integrate ortho    CPU                                   4144       7.05%
 1     integrate ortho    CPU                                   4144       7.05%
 2     collocate general  CPU                                   1332       2.27%
 2     integrate general  CPU                                   1332       2.27%
 2     collocate ortho    CPU                                    296       0.50%
 2     integrate ortho    CPU                                    296       0.50%
 0     collocate general  CPU                                     18       0.03%
 0     integrate general  CPU                                     18       0.03%
 -------------------------------------------------------------------------------

 -------------------------------------------------------------------------------
 -                                                                             -
 -                          OFFLOAD MEMPOOL STATISTICS                         -
 -                                                                             -
 -------------------------------------------------------------------------------
 Memory consumption                Number of allocations  Used [MiB]  Size [MiB]
 Host                                                134          43          61
 -------------------------------------------------------------------------------

 MEMORY| Estimated peak process memory [MiB]                                1574

 -------------------------------------------------------------------------------
 ----                             MULTIGRID INFO                            ----
 -------------------------------------------------------------------------------
 count for grid        1:       47190138          cutoff [a.u.]          250.00
 count for grid        2:        7260460          cutoff [a.u.]           83.33
 count for grid        3:        5582621          cutoff [a.u.]           27.78
 count for grid        4:        1748630          cutoff [a.u.]            9.26
 total gridlevel count  :       61781849

 -------------------------------------------------------------------------------
 -                                                                             -
 -                         MESSAGE PASSING PERFORMANCE                         -
 -                                                                             -
 -------------------------------------------------------------------------------

 ROUTINE             CALLS      AVE VOLUME [Bytes]
 MP_Group             3038
 MP_Bcast             8606                 197305.
 MP_Allreduce        26611                  12603.
 MP_Sync              3896
 MP_Alltoall          4217                6363491.
 MP_SendRecv         28268                  69520.
 MP_ISendRecv        56918                  43255.
 MP_Wait             86355
 MP_comm_split        1620
 MP_ISend            45473                 231839.
 MP_IRecv            42589                 246448.
 -------------------------------------------------------------------------------


 -------------------------------------------------------------------------------
 -                                                                             -
 -                           R E F E R E N C E S                               -
 -                                                                             -
 -------------------------------------------------------------------------------
 
 CP2K version 2025.2 (Development Version), the CP2K developers group (2025).
 CP2K is freely available from https://www.cp2k.org/ .
 
 M. Graml, K. Zollner, D. Hernangómez-Pérez, P. E. Faria Junior, J. Wilhelm.
 J. Chem. Theory Comput. 20, 2202-2208 (2024).
 Low-scaling GW algorithm applied to twisted transition-metal dichalcogenide 
 heterobilayers.
 https://doi.org/10.1021/acs.jctc.3c01230

 T. D. Kuehne, M. Iannuzzi, M. Del Ben, V. V. Rybkin, P. Seewald, F. Stein, T. 
 Laino, R. Z. Khaliullin, O. Schuett, F. Schiffmann, D. Golze, J. Wilhelm, S. 
 Chulkov, M. H. Bani-Hashemian, V. Weber, U. Borstnik, M. Taillefumier, A. S. 
 Jakobovits, A. Lazzaro, H. Pabst, T. Mueller, R. Schade, M. Guidon, S. 
 Andermatt, N. Holmberg, G. K. Schenter, A. Hehn, A. Bussy, F. Belleflamme, G. 
 Tabacchi, A. Gloess, M. Lass, I. Bethune, C. J. Mundy, C. Plessl, M. Watkins, 
 J. VandeVondele, M. Krack, J. Hutter.
 J. Chem. Phys. 152, 194103 (2020).
 CP2K: An electronic structure and molecular dynamics software package - 
 Quickstep: Efficient and accurate electronic structure calculations.
 https://doi.org/10.1063/5.0007045

 O. Schuett, P. Messmer, J. Hutter, J. VandeVondele.
 Electronic Structure Calculations on Graphics Processing Units, 173-190 (2016).
 GPU-Accelerated Sparse Matrix-Matrix Multiplication for Linear Scaling Density 
 Functional Theory.
 https://doi.org/10.1002/9781118670712.ch8

 A. Heinecke, G. Henry, M. Hutchinson, H. Pabst.
 Proceedings of Intl. Supercomputing Conference, 981-991 (2016).
 LIBXSMM: Accelerating Small Matrix Multiplications by Runtime Code Generation.
 https://doi.org/10.1109/SC.2016.83

 J. Hutter, M. Iannuzzi, F. Schiffmann, J. VandeVondele.
 WIREs Comput Mol Sci. 4, 15-25 (2014).
 CP2K: atomistic simulations of condensed matter systems.
 https://doi.org/10.1002/wcms.1159

 U. Borstnik, J. VandeVondele, V. Weber, J. Hutter.
 Parallel Comput. 40, 47-58 (2014).
 Sparse matrix multiplication: The distributed block-compressed sparse row 
 library.
 https://doi.org/10.1016/j.parco.2014.03.012

 A. Marek, V. Blum, R. Johanni, V. Havu, B. Lang, T. Auckenthaler, A. Heinecke, 
 H. Bungartz, H. Lederer.
 J. Phys. Condens. Matter 26, 213201 (2014).
 The ELPA library: scalable parallel eigenvalue solutions for electronic 
 structure theory and computational science.
 https://doi.org/10.1088/0953-8984/26/21/213201

 M. Guidon, J. Hutter, J. VandeVondele.
 J. Chem. Theory Comput. 5, 3010-3021 (2009).
 Robust Periodic Hartree-Fock Exchange for Large-Scale Simulations Using 
 Gaussian Basis Sets.
 https://doi.org/10.1021/ct900494g

 M. Guidon, F. Schiffmann, J. Hutter, J. VandeVondele.
 J. Chem. Phys. 128, 214104 (2008).
 Ab initio molecular dynamics using hybrid density functionals.
 https://doi.org/10.1063/1.2931945

 L. Genovese, T. Deutsch, S. Goedecker.
 J. Chem. Phys. 127, 054704 (2007).
 Efficient and accurate three-dimensional Poisson solver for surface problems.
 https://doi.org/10.1063/1.2754685

 J. VandeVondele, J. Hutter.
 J. Chem. Phys. 127, 114105 (2007).
 Gaussian basis sets for accurate calculations on molecular systems in gas and 
 condensed phases.
 https://doi.org/10.1063/1.2770708

 L. Genovese, T. Deutsch, A. Neelov, S. Goedecker, G. Beylkin.
 J. Chem. Phys. 125, 074105 (2006).
 Efficient solution of Poisson's equation with free boundary conditions.
 https://doi.org/10.1063/1.2335442

 M. Frigo, S. G. Johnson.
 Proc. IEEE 93, 216-231 (2005).
 The design and implementation of FFTW3.
 https://doi.org/10.1109/JPROC.2004.840301

 M. Krack, M. Parrinello.
 Phys. Chem. Chem. Phys. 2, 2105-2112 (2000).
 All-electron ab-initio molecular dynamics.
 https://doi.org/10.1039/b001167n

 G. Lippert, J. Hutter, M. Parrinello.
 Theor. Chem. Acc. 103, 124-140 (1999).
 The Gaussian and augmented-plane-wave density functional method for ab initio 
 molecular dynamics simulations.
 https://doi.org/10.1007/s002140050523

 J. P. Perdew, K. Burke, M. Ernzerhof.
 Phys. Rev. Lett. 77, 3865-3868 (1996).
 Generalized gradient approximation made simple.
 https://doi.org/10.1103/PhysRevLett.77.3865


 -------------------------------------------------------------------------------
 -                                                                             -
 -                                T I M I N G                                  -
 -                                                                             -
 -------------------------------------------------------------------------------
 SUBROUTINE                       CALLS  ASD         SELF TIME        TOTAL TIME
                                MAXIMUM       AVERAGE  MAXIMUM  AVERAGE  MAXIMUM
 CP2K                                 1  1.0    0.017    0.028  116.793  116.802
 qs_energies                          1  2.0    0.000    0.000  116.435  116.443
 scf_env_do_scf                       1  3.0    0.000    0.000   93.039   93.046
 scf_env_do_scf_inner_loop           73  4.0    0.001    0.003   93.039   93.046
 qs_ks_build_kohn_sham_matrix        74  7.0    0.010    0.013   75.544   75.563
 qs_ks_update_qs_env                 73  5.0    0.001    0.001   75.086   75.104
 rebuild_ks_matrix                   73  6.0    0.000    0.000   75.080   75.098
 hfx_ks_matrix                       74  8.0    0.001    0.001   27.058   27.072
 integrate_four_center               74  9.0    1.601    2.271   27.055   27.068
 fft_wrap_pw1pw2                   1545 10.0    0.016    0.019   26.121   26.647
 fft_wrap_pw1pw2_250               1101 11.1    0.421    0.507   24.617   25.211
 fft3d_ps                          1545 12.0    2.856    4.038   24.612   25.106
 mp_alltoall_z22v                  1545 14.0   20.676   21.162   20.676   21.162
 qs_energies_properties               1  3.0    0.000    0.000   20.715   20.722
 post_scf_bandstructure               1  4.0    0.000    0.000   20.715   20.722
 gw                                   1  5.0    0.000    0.000   20.578   20.580
 gw_calc_large_cell_Gamma             1  6.0    0.000    0.000   19.313   19.325
 pw_poisson_solve                    74  8.0    0.110    0.170   19.021   19.034
 integrate_four_center_main          74 10.0    0.027    1.357   11.653   16.330
 integrate_four_center_bin         4374 11.0   11.627   14.973   11.627   14.973
 qs_rho_update_rho_low               74  5.0    0.001    0.001   13.551   13.555
 calculate_rho_elec                  74  6.0    0.050    0.075   13.112   13.115
 mp_sync                           3896 12.1   10.271   12.647   10.271   12.647
 qs_vxc_create                       74  8.0    0.001    0.001   12.116   12.279
 xc_vxc_pw_create                    73  9.0    0.075    0.108   12.115   12.278
 x_to_yz                            660 12.9    0.334    0.514   10.942   11.265
 dbt_total                          699  9.0    0.003    0.004   10.686   10.687
 yz_to_x                            589 13.2    0.214    0.249   10.227   10.574
 get_Sigma_c                          1  7.0    0.001    0.001   10.237   10.238
 dbt_contract                       243  9.9    0.007    0.011    9.796    9.801
 xc_pw_derive                       438 11.0    0.002    0.003    9.633    9.777
 ps_wavelet_solve                    74  9.0    2.060    2.897    9.418    9.706
 dbt_tas_multiply                   486 12.4    0.001    0.001    9.701    9.703
 dbt_tas_total                      486 13.4    0.036    0.047    9.694    9.695
 density_rs2pw                       74  7.0    0.002    0.003    8.431    9.133
 calc_screening_functions             1 10.0    5.839    5.945    6.472    6.599
 xc_pw_divergence                    73 10.0    0.001    0.001    6.315    6.456
 sum_up_and_integrate                74  8.0    0.001    0.001    5.934    6.206
 get_mat_chi_Gamma_tau                1  7.0    0.000    0.001    6.173    6.184
 integrate_v_rspace                  74  9.0    0.002    0.002    5.912    6.183
 contract_to_Sigma                   61  8.0    0.001    0.001    6.152    6.153
 mp_waitany                       24380 11.5    4.914    6.062    4.914    6.062
 mp_alltoall_d45                     75 10.0    5.359    5.988    5.359    5.988
 xc_rho_set_and_dset_create          73 10.0    0.079    0.099    5.530    5.840
 potential_pw2rs                     74 10.0    0.006    0.007    5.556    5.580
 prepare_gapw_den                    74  8.0    0.001    0.001    5.341    5.406
 transfer_rs2pw                     371  8.4    0.006    0.010    4.535    5.209
 transfer_pw2rs                     371 10.6    0.003    0.004    4.717    5.167
 mp_alltoall_d54                     74 10.0    3.354    5.166    3.354    5.166
 compute_3c_integrals               152  8.6    0.002    0.002    4.961    4.963
 grid_collocate_task_list            74  7.0    4.453    4.876    4.453    4.876
 build_3c_integrals                 157  9.6    2.160    3.640    2.662    4.810
 mp_alltoall_d11v                  2810 10.6    4.216    4.649    4.216    4.649
 gspace_mixing                       72  5.0    0.049    0.073    3.554    3.555
 transfer_pw2rs_250                 149 11.0    0.734    0.887    2.874    3.470
 compute_3c_and_contract_W           31  8.0    0.000    0.000    3.442    3.442
 put_rho0_on_grid                    74  9.0    0.055    0.089    3.189    3.254
 transfer_rs2pw_250                 149 10.0    0.764    0.839    2.539    3.211
 dbt_tas_dbm                        486 14.4    0.001    0.001    3.178    3.179
 mp_sum_d                          7286  6.9    2.528    3.058    2.528    3.058
 dbm_multiply                       486 16.4    2.292    2.796    2.292    2.796
 integrate_vhg0_rspace               74  8.0    0.119    0.149    2.362    2.721
 qs_scf_new_mos                      73  5.0    0.001    0.001    2.389    2.402
 get_W_MIC                            1  7.0    0.000    0.000    2.131    2.132
 compute_W_MIC                        1  8.0    0.000    0.000    2.131    2.132
 cp_fm_diag_elpa                     79  7.1    0.000    0.000    2.116    2.123
 cp_fm_diag_elpa_base                79  8.1    2.059    2.101    2.105    2.105
 eigensolver_symm                    73  6.0    0.005    0.006    2.078    2.103
 dbt_tas_create_split              1618 15.2    0.003    0.004    2.036    2.081
 dbt_tas_create_split_rows_or_c    1618 16.2    0.004    0.004    2.033    2.078
 calculate_rho_atom                 370  9.0    0.389    1.932    0.389    1.932
 compute_fm_W_MIC_freq_j             30  9.0    0.000    0.000    1.914    1.914
 broyden_mixing                      72  6.0    1.786    1.846    1.856    1.914
 init_scf_run                         1  3.0    0.000    0.000    1.833    1.834
 mp_waitall_1                     69995 12.0    1.439    1.805    1.439    1.805
 mp_sum_dv                        11624  8.7    1.746    1.798    1.746    1.798
 G_times_3c                          60  8.0    0.000    0.004    1.756    1.760
 scf_env_initial_rho_setup            1  4.0    0.000    0.000    1.598    1.626
 dbm_redistribute                   912 14.1    1.237    1.623    1.237    1.623
 convert_to_new_pgrid              1458 14.4    0.481    0.656    1.269    1.556
 cp2k_distribution_to_z_slices       74  9.0    0.140    0.170    1.392    1.536
 pw_poisson_rebuild                  74  9.0    0.000    0.000    1.486    1.526
 ps_wavelet_create                    1 10.0    0.000    0.000    1.486    1.526
 RS_z_slice_distribution              1 11.0    0.103    0.113    1.486    1.526
 dbt_tas_estimate_result_nze        243 12.9    0.062    0.102    1.462    1.462
 dbt_tas_mm_2                       182 15.2    0.000    0.001    1.456    1.456
 calculate_vxc_atom                  74  8.0    0.029    0.145    1.453    1.454
 cp_cfm_power                        30 10.0    0.000    0.001    1.433    1.442
 dbt_tas_distribution_new          1774 14.6    0.529    0.573    1.420    1.442
 cp_cfm_heevd                        32 10.8    0.000    0.000    1.410    1.425
 cp_cfm_heevd_base                   32 11.8    1.410    1.425    1.410    1.425
 transfer_rs2pw_90                   74  9.0    0.169    0.220    1.278    1.369
 mp_sum_dm                         4068  7.7    1.141    1.326    1.141    1.326
 transfer_pw2rs_90                   74 12.0    0.136    0.177    1.105    1.319
 create_and_init_bs_env_for_gw        1  6.0    0.000    0.000    1.265    1.283
 fft_wrap_pw1pw2_90                 148 10.5    0.016    0.023    0.996    1.260
 gaVxcgb_GC                         146  9.0    0.022    1.237    0.022    1.237
 powell_optimize                1168423 11.0    1.173    1.228    1.173    1.228
 calc_pair_dist_radii                 1 10.0    0.609    0.631    1.149    1.175
 reshape_mm_small                   486 14.4    0.025    0.026    1.119    1.143
 reshape_mm_compatible              486 14.4    0.006    0.006    1.017    1.050
 mp_bcast_i                        2211 13.1    1.043    1.045    1.043    1.045
 change_split                       729 14.9    0.002    0.003    0.992    1.025
 abc_contract_xsmm               117120 10.6    0.313    0.949    0.313    0.949
 dbt_tas_mm_3N                       62 15.5    0.000    0.000    0.768    0.924
 fm_to_local_tensor                 152  8.0    0.002    0.002    0.902    0.921
 xc_functional_eval                 365 10.8    0.001    0.001    0.493    0.898
 pbe_lda_eval                       365 11.8    0.492    0.897    0.492    0.897
 mp_sum_l                          3075 13.8    0.656    0.851    0.656    0.851
 parallel_gemm_fm_cosma             330  8.3    0.798    0.846    0.798    0.846
 qs_energies_init_hamiltonians        1  3.0    0.000    0.000    0.802    0.802
 build_core_hamiltonian_matrix        1  4.0    0.000    0.000    0.786    0.786
 overlap_condnum                      1  5.0    0.000    0.000    0.783    0.786
 parallel_gemm_cfm                  285 10.4    0.000    0.000    0.709    0.737
 parallel_gemm_cfm_cosma            285 11.4    0.709    0.737    0.709    0.737
 transfer_pw2rs_30                   74 12.0    0.159    0.200    0.587    0.717
 mp_waitall_2                      2978 16.0    0.468    0.689    0.468    0.689
 rs_grid_zero                       372 11.2    0.505    0.661    0.505    0.661
 transfer_rs2pw_30                   74  9.0    0.292    0.328    0.598    0.636
 grid_integrate_task_list            74 10.0    0.073    0.598    0.073    0.598
 dbt_copy                           456 10.1    0.004    0.005    0.436    0.576
 rs_gather_matrices                  74 10.0    0.001    0.004    0.282    0.567
 setup_time_and_frequency_minim       1  7.0    0.000    0.000    0.523    0.541
 pw_copy                           1105 10.6    0.454    0.538    0.454    0.538
 pw_derive                          660 11.3    0.461    0.529    0.461    0.529
 dbt_tas_communicate_buffer        1124 16.5    0.010    0.016    0.329    0.502
 dbt_tas_replicate                  486 14.4    0.032    0.044    0.387    0.496
 arnoldi_conjugate_gradient           5  6.0    0.007    0.009    0.491    0.492
 mp_comm_split_direct              1620 17.2    0.474    0.476    0.475    0.476
 compute_V_xc                         1  7.0    0.000    0.000    0.466    0.466
 dbt_tas_reshape                    638 14.5    0.006    0.009    0.355    0.454
 mp_comm_dup                       1379 17.6    0.407    0.452    0.407    0.452
 dbt_reshape                        274 10.9    0.093    0.131    0.353    0.450
 copy_dbcsr_to_fm                   267  8.4    0.002    0.003    0.416    0.449
 compute_cfm_W_ikp_freq_j            30 10.0    0.000    0.001    0.439    0.447
 calculate_rho_atom_coeff            74  6.0    0.036    0.064    0.438    0.440
 pw_gather_p                        737 11.8    0.377    0.436    0.377    0.436
 integrate_four_center_getP          74 10.0    0.011    0.015    0.392    0.428
 dbt_create_matrix                  152  9.0    0.001    0.001    0.420    0.426
 fft_wrap_pw1pw2_30                 148 10.5    0.002    0.003    0.338    0.425
 mp_sendrecv_dv                   28268 10.0    0.370    0.424    0.370    0.424
 mp_alltoall_z11v                   296 13.5    0.369    0.422    0.369    0.422
 get_Sigma_x                          1  7.0    0.000    0.000    0.422    0.422
 compute_Sigma_x                      1  8.0    0.000    0.000    0.422    0.422
 dbcsr_complete_redistribute        565  9.5    0.012    0.014    0.363    0.387
 dbt_distribution_new_expert        316 10.5    0.002    0.002    0.378    0.378
 pw_scatter_p                       808 12.1    0.332    0.373    0.332    0.373
 mp_alltoall_i                     1917 14.5    0.345    0.369    0.345    0.369
 mp_bcast_dm                       2665  9.0    0.347    0.354    0.347    0.354
 write_matrix                        91  8.0    0.000    0.000    0.306    0.353
 compute_QP_energies                  1  7.0    0.000    0.000    0.350    0.351
 dbt_tas_mm_1N                      120 15.5    0.000    0.000    0.227    0.344
 dbm_reserve_blocks                2921 15.9    0.209    0.336    0.209    0.336
 G_occ_vir                          121  8.0    0.001    0.001    0.319    0.332
 dbt_tas_reserve_blocks_index      2435 15.0    0.002    0.003    0.205    0.331
 cp_fm_power                          3  8.7    0.001    0.002    0.322    0.326
 mp_cart_create                    3311 14.6    0.293    0.323    0.295    0.325
 integrate_four_center_load          74 10.0    0.000    0.000    0.156    0.324
 hfx_load_balance                     1 11.0    0.000    0.000    0.156    0.324
 dbcsr_sym_matrix_vector_mult      3775  7.0    0.017    0.018    0.301    0.323
 dbt_tas_mm_3T                      122 15.5    0.000    0.000    0.232    0.323
 pw_poisson_set                      75  9.0    0.001    0.001    0.305    0.318
 hfx_load_balance_range               1 12.0    0.000    0.000    0.143    0.311
 mp_isend_dm3                      2972 11.5    0.085    0.297    0.085    0.297
 mp_isend_dv                      37969 12.7    0.202    0.297    0.202    0.297
 to_ikp_and_mo                       62  8.0    0.000    0.001    0.294    0.294
 fm_Gamma_ao_to_cfm_ikp_mo           62  9.0    0.000    0.000    0.287    0.291
 dbt_tas_replicate_communicate_     304 15.5    0.002    0.003    0.182    0.287
 dbt_communicate_buffer             274 11.9    0.002    0.003    0.200    0.285
 mp_alltoall_i22                    838 10.4    0.243    0.276    0.243    0.276
 fm_write                           121  9.0    0.003    0.056    0.204    0.275
 pw_copy_to_array                   737 11.8    0.219    0.274    0.219    0.274
 dbt_tas_copy                       486 13.8    0.053    0.106    0.171    0.269
 xz_to_yz                           148 11.0    0.004    0.013    0.235    0.266
 update_ks_atom                      74  8.0    0.025    0.046    0.249    0.266
 calculate_rho0_atom                370  9.0    0.238    0.251    0.238    0.251
 Vh_1c_gg_integrals                  74  8.0    0.008    0.235    0.242    0.246
 mp_max_i                          1032  6.6    0.169    0.235    0.169    0.235
 check_sparsity_3c                    1  7.0    0.000    0.000    0.235    0.235
 mp_irecv_dv                      35808 12.7    0.024    0.233    0.024    0.233
 pw_integral_ab_c1d_c1d_gs           74  9.0    0.097    0.109    0.167    0.232
 cp_fm_write_unformatted            125  9.9    0.210    0.221    0.210    0.229
 pw_copy_from_array                 808 12.1    0.125    0.221    0.125    0.221
 mp_cart_sub                        552 10.4    0.169    0.210    0.169    0.210
 calculate_dm_sparse                 73  6.0    0.000    0.000    0.199    0.210
 cp_dbcsr_plus_fm_fm_t               73  7.0    0.001    0.001    0.198    0.209
 dbcsr_rep_row_to_rep_col_vec      3775  8.0    0.006    0.008    0.106    0.209
 dbt_tas_reserve_blocks_templat     972 14.4    0.002    0.003    0.122    0.201
 dbt_tas_merge                      182 14.2    0.021    0.029    0.144    0.197
 get_l_sq_wghts_cos_tf_t_to_w         1  8.0    0.178    0.194    0.178    0.194
 pw_axpy                            735  9.3    0.159    0.184    0.159    0.184
 multiply_fm_W_MIC_time_with_Mi       2  9.0    0.000    0.000    0.183    0.184
 yz_to_xz                           148 14.0    0.006    0.012    0.145    0.183
 get_l_sq_wghts_cos_tf_w_to_t         1  8.0    0.169    0.178    0.171    0.180
 get_l_sq_wghts_sin_tf_t_to_w         1  8.0    0.174    0.179    0.174    0.179
 qs_init_subsys                       1  2.0    0.002    0.002    0.174    0.174
 dbcsr_desymmetrize_deep            273  9.4    0.003    0.004    0.154    0.171
 integrate_four_center_dist_KS       74 10.0    0.012    0.016    0.168    0.169
 transfer_pw2rs_10                   74 12.0    0.042    0.052    0.148    0.164
 fft_wrap_pw1pw2_10                 148 10.5    0.001    0.001    0.154    0.164
 qs_env_setup                         1  3.0    0.000    0.000    0.162    0.163
 qs_env_rebuild_pw_env                2  3.5    0.000    0.000    0.162    0.163
 pw_env_rebuild                       1  5.0    0.000    0.000    0.162    0.163
 cp_fm_symm                          73  7.0    0.153    0.162    0.153    0.162
 dbt_tas_reshape_alltoall           638 15.5    0.001    0.001    0.155    0.160
 dbt_tas_merge_communicate_buff     182 15.2    0.001    0.002    0.103    0.157
 dbt_tas_replicate_alltoall         304 15.5    0.000    0.000    0.126    0.148
 create_qs_kind_set                   1  2.0    0.000    0.000    0.137    0.137
 read_qs_kind                         5  3.0    0.037    0.067    0.137    0.137
 dbcsr_col_vec_to_rep_row          3775  8.0    0.008    0.009    0.090    0.136
 mp_rank_compare                   1545 13.0    0.126    0.133    0.126    0.133
 pw_zero                            440 10.3    0.116    0.131    0.116    0.131
 dbcsr_multiply_generic              73  8.0    0.002    0.002    0.121    0.127
 pw_grid_setup                        4  6.0    0.000    0.000    0.126    0.127
 pw_grid_setup_internal               4  7.0    0.001    0.001    0.126    0.127
 transfer_rs2pw_10                   74  9.0    0.050    0.059    0.114    0.127
 copy_fm_to_dbcsr                   298  8.5    0.001    0.001    0.107    0.120
 dbt_reserve_blocks_index           825 12.3    0.001    0.001    0.071    0.119
 cp_cfm_cholesky_decompose           35 10.7    0.103    0.107    0.103    0.107
 dbt_tas_reshape_buffer_obtain      638 15.5    0.058    0.080    0.080    0.107
 dbt_tas_reshape_communicate_bu     638 15.5    0.004    0.005    0.051    0.106
 cp_cfm_geeig                         2  7.0    0.000    0.000    0.105    0.105
 dbt_tas_reshape_buffer_fill        638 15.5    0.060    0.104    0.060    0.104
 parser_read_line                 37106  4.0    0.003    0.004    0.101    0.102
 parser_read_line_low                52  5.0    0.001    0.018    0.097    0.099
 broadcast_input_information         52  6.0    0.004    0.005    0.096    0.098
 dbcsr_add_d                       6619  7.6    0.002    0.002    0.021    0.089
 dbcsr_add_anytype                 6619  8.6    0.003    0.012    0.019    0.087
 dos_pdos_ldos                        1  5.0    0.000    0.000    0.078    0.084
 cube_transpose_2                   148 11.0    0.002    0.002    0.038    0.083
 cp_cfm_cholesky_invert              31 11.0    0.072    0.074    0.072    0.074
 dbt_pgrid_create_expert            320 11.5    0.001    0.001    0.070    0.072
 dbt_create_new                     158 10.0    0.001    0.001    0.064    0.072
 dbcsr_finalize                    9320 11.2    0.006    0.021    0.024    0.071
 dbt_reserve_blocks_index_array     516 12.0    0.001    0.001    0.036    0.069
 dbm_add                            486 14.4    0.037    0.066    0.037    0.066
 build_3c_integrals_put_dbcsr      3834 10.6    0.023    0.065    0.023    0.065
 vxc_of_r_new                       292  9.0    0.000    0.005    0.002    0.064
 mp_bcast_i_src                     208  7.0    0.060    0.063    0.060    0.063
 cp_fm_uplo_to_full                  82  9.1    0.033    0.061    0.033    0.061
 fill_fm_Sigma_c_Gamma_time           1  8.0    0.000    0.000    0.060    0.060
 create_and_init_bs_env               1  5.0    0.000    0.000    0.058    0.059
 alloc_block_3c                     157 10.6    0.004    0.007    0.041    0.058
 get_fft_scratch                   1546 12.9    0.005    0.006    0.016    0.057
 mp_bcast_b_src                     152  7.6    0.019    0.053    0.019    0.053
 dbt_nd_mp_comm                     152 10.0    0.000    0.000    0.051    0.053
 mp_isendrecv_dv                  56536 12.0    0.023    0.052    0.023    0.052
 diagonalize_ks_matrix                1  6.0    0.000    0.000    0.051    0.051
 cp_fm_geeig_canon                    1  7.0    0.000    0.000    0.051    0.051
 make_m2s                           146  9.0    0.002    0.002    0.049    0.051
 global_matrix_to_local_matrix      152  9.0    0.001    0.001    0.036    0.049
 dbcsr_dot                          147  8.0    0.001    0.001    0.020    0.048
 rs_scatter_matrices                 74  7.0    0.000    0.001    0.010    0.047
 multiply_cannon                     73  9.0    0.004    0.005    0.039    0.046
 pw_grid_remap                        4  8.0    0.001    0.001    0.045    0.046
 calculate_first_density_matrix       1  5.0    0.000    0.000    0.018    0.046
 calculate_atomic_block_dm            1  6.0    0.001    0.001    0.018    0.046
 mp_irecv_dm3                      2972 11.5    0.012    0.045    0.012    0.045
 mp_sum_im3                           6  9.5    0.044    0.045    0.044    0.045
 dbt_tas_mp_comm                    243 12.9    0.002    0.002    0.044    0.045
 scf_post_calculation_gpw             1  3.0    0.000    0.000    0.045    0.045
 write_available_results              1  4.0    0.000    0.000    0.044    0.045
 write_mo_free_results                1  5.0    0.001    0.002    0.044    0.044
 mp_sum_i                           648 14.2    0.040    0.044    0.040    0.044
 compute_fm_chi_Gamma_freq           30 10.0    0.000    0.000    0.040    0.044
 mp_comm_free                      6917 13.6    0.038    0.042    0.038    0.042
 mp_bcast_dv                       3775  9.0    0.029    0.042    0.029    0.042
 make_images                        146 10.0    0.002    0.008    0.037    0.039
 local_dbt_to_global_mat             91  8.0    0.000    0.001    0.028    0.038
 cube_transpose_1                   148 14.0    0.001    0.002    0.020    0.038
 scale_and_distribute               148 10.0    0.027    0.038    0.027    0.038
 dbt_crop                           212 11.0    0.013    0.022    0.022    0.038
 dbcsr_merge_all                   7793 12.3    0.010    0.032    0.013    0.037
 mp_alltoall_i11v                  1968 10.5    0.017    0.037    0.017    0.037
 dbcsr_copy                       15733  7.6    0.014    0.025    0.024    0.036
 create_fast_row_vec_access        7550  8.0    0.007    0.029    0.012    0.034
 multiply_cannon_loop                73 10.0    0.003    0.003    0.026    0.033
 mp_sum_im                           11  8.0    0.032    0.033    0.032    0.033
 dbt_tas_reshape_get_coord          638 15.5    0.002    0.032    0.002    0.032
 make_images_sizes                  146 11.0    0.000    0.000    0.029    0.032
 mp_alltoall_i44                    146 12.0    0.029    0.032    0.029    0.032
 dbcsr_iterator_start             49968  9.0    0.018    0.024    0.022    0.032
 mp_bcast_am_src                     52  7.0    0.027    0.029    0.030    0.032
 pw_grid_sort                         4  8.0    0.021    0.021    0.029    0.031
 dbcsr_create_new                 18687  8.8    0.013    0.025    0.018    0.030
 dbt_create_template                860  9.9    0.005    0.029    0.005    0.029
 send_sizes_1                       152 10.0    0.000    0.000    0.025    0.029
 compute_max_radius                   1  6.0    0.027    0.029    0.027    0.029
 local_matrix_to_global_matrix       91  9.0    0.000    0.000    0.016    0.027
 check_for_restart_files              1  7.0    0.025    0.027    0.025    0.027
 compute_MinvVsqrt_Vsqrt              1  9.0    0.000    0.000    0.025    0.027
 dbt_tas_create_new                2345 14.5    0.008    0.025    0.008    0.025
 create_tensors_chi                  30  8.0    0.000    0.000    0.001    0.025
 compute_proj_mo_on_kind              1  6.0    0.000    0.000    0.024    0.024
 dbcsr_filter_anytype               718  9.8    0.001    0.001    0.006    0.022
 hirshfeld_integration                1  6.0    0.000    0.003    0.022    0.022
 dbt_copy_nocomm                     30 10.0    0.005    0.010    0.012    0.022
 hybrid_alltoall_any                419 11.0    0.002    0.002    0.009    0.021
 pw_scale                           293  9.5    0.016    0.020    0.016    0.020
 multiply_cannon_metrocomm3        1752 11.0    0.002    0.002    0.011    0.020
 dbcsr_iterator_stop              49968  9.0    0.012    0.017    0.015    0.020
 calculate_hirshfeld_normalizat       1  6.0    0.000    0.003    0.017    0.018
 dbt_tas_merge_alltoall             182 15.2    0.000    0.000    0.017    0.018
 cp_fm_redistribute_start            79  8.1    0.000    0.000    0.011    0.018
 mp_maxloc_dv                      1629  1.0    0.017    0.017    0.017    0.017
 write_mo_set_to_restart             73  5.0    0.001    0.006    0.010    0.017
 reserve_blocks                     152 10.0    0.000    0.000    0.001    0.016
 self_consistency_check              73  5.0    0.000    0.000    0.011    0.016
 cp_sm_mix                           73  6.0    0.000    0.000    0.011    0.016
 comm_data                           91 10.0    0.000    0.001    0.005    0.016
 mp_max_d                            80  7.0    0.011    0.016    0.011    0.016
 pw_grid_distribute                   4  8.0    0.003    0.004    0.016    0.016
 mp_sum_iv                           31  7.5    0.015    0.016    0.015    0.016
 qs_env_update_s_mstruct              1  4.0    0.000    0.000    0.012    0.016
 qs_create_task_list                  1  5.0    0.000    0.000    0.012    0.015
 generate_qs_task_list                1  6.0    0.000    0.000    0.012    0.015
 distribute_tasks                     1  7.0    0.000    0.000    0.011    0.015
 mp_recv_dv                        3235 10.9    0.000    0.015    0.000    0.015
 dbcsr_sym_matrix_vector_mult_l    3775  8.0    0.004    0.011    0.007    0.014
 dbt_buffer_get_index            215808 16.0    0.013    0.013    0.013    0.013
 dbcsr_work_create                 8358 11.3    0.003    0.009    0.005    0.013
 RI_2c_integral_mat                   4  9.8    0.000    0.000    0.013    0.013
 mixing_init                          1  5.0    0.012    0.012    0.013    0.013
 create_tensors                       1  7.0    0.000    0.000    0.013    0.013
 create_fast_col_vec_access        7550  8.0    0.007    0.008    0.012    0.013
 make_images_data                   146 11.0    0.001    0.001    0.004    0.013
 write_mo_set_low                     4  6.0    0.000    0.000    0.009    0.013
 xc_pw_smooth                        73 10.0    0.000    0.000    0.010    0.012
 -------------------------------------------------------------------------------

 The number of warnings for this run is : 1
 
 -------------------------------------------------------------------------------
  **** **** ******  **  PROGRAM ENDED AT                 2025-10-25 04:48:57.364
 ***** ** ***  *** **   PROGRAM RAN ON                                    cn1509
 **    ****   ******    PROGRAM RAN BY                                  metdyn02
 ***** **    ** ** **   PROGRAM PROCESS ID                               2529293
  **** **  *******  **  PROGRAM STOPPED IN /scratch/hpc-prf-metdyn/metdyn02_Remi
                                           /04_mol/Benchmark_mol_low_scal/aUKBqs
                                           EOTmq69kFe5R_nOg/5k_set_final_qzvp/DU
                                           QPAH/DZVP/1e-3/9.0
