&GLOBAL
  PROJECT  MoS2
  PRINT_LEVEL MEDIUM
  RUN_TYPE ENERGY
  &TIMINGS
     THRESHOLD 0.0001
  &END
  TRACE
  TRACE_MASTER
  TRACE_ROUTINES compute_chi dbt_create_2c_R dbt_create_3c_R1_R2 dbt_create G_occ_vir contract_M_occ_vir_to_chi local_dbt_to_global_fm
&END GLOBAL
&FORCE_EVAL
  METHOD Quickstep
  &PROPERTIES
  &TDDFPT                          ! input section for TDDFPT
       KERNEL FULL                       ! specification of the underlying kernel matrix K
                                         ! FULL kernel is for GGA and hybrid functional computations
                                         ! sTDA kernel is referring to a semi-empirical sTDA computation
       NSTATES 20                      ! specifies the number of excited states to be computed
       MAX_ITER   100                  ! number of iterations for the Davidson algorithm
       CONVERGENCE [eV] 1.0e-6         ! convergence threshold in eV
       &XC                            ! If choosing kernel FULL, the underlying functional can be
        &XC_FUNCTIONAL PBE0             ! specified by adding an XC section
        &END XC_FUNCTIONAL              ! The functional can be chosen independently from the chosen
  	 &HF
          &MEMORY 
            MAX_MEMORY 8000
  	   &END MEMORY
  	 &END HF
       &END XC                        ! GS functional except when choosing ADMM 
    &END TDDFPT
   &END PROPERTIES
  &DFT
    BASIS_SET_FILE_NAME /scratch/hpc-prf-metdyn/metdyn02_Remi/BASIS_AUG_MOLOPT/BASIS_ALL_MOLOPT_AUG_for_excited_states
    BASIS_SET_FILE_NAME /scratch/hpc-prf-metdyn/metdyn02_Remi/BASIS_AUG_MOLOPT/BASIS_ALL_MOLOPT_AUG_for_excited_states_RI
    BASIS_SET_FILE_NAME /scratch/hpc-prf-metdyn/metdyn02_Remi/BASIS_AUG_MOLOPT/aug-cc-pVZ
    BASIS_SET_FILE_NAME /scratch/hpc-prf-metdyn/metdyn02_Remi/BASIS_AUG_MOLOPT/aug-cc-pVZ-TOTRI
    SORT_BASIS EXP
    POTENTIAL_FILE_NAME  /pc2/groups/hpc-prf-metdyn/metdyn02_Remi/cp2k/cp2k/data/ALL_POTENTIALS 
    CHARGE 0
    &MGRID
      CUTOFF  500
      REL_CUTOFF  100
    &END MGRID
    &POISSON
      PERIODIC NONE
      POISSON_SOLVER WAVELET
    &END POISSON
    &QS
      METHOD GAPW
      EPS_DEFAULT 1.0E-12
      EPS_PGF_ORB 1.0E-12
    &END QS
    &SCF
      SCF_GUESS ATOMIC
      EPS_SCF 1.0E-6
      MAX_SCF 500
      &PRINT
        &RESTART ON
        &END
      &END
      ADDED_MOS -1
      &MIXING
          METHOD BROYDEN_MIXING
          ALPHA 0.1
          BETA 1.5
          NBROYDEN 8
      &END
      CHOLESKY OFF
    &END SCF
    &XC
      &XC_FUNCTIONAL PBE0
      &END XC_FUNCTIONAL
      &HF
         &MEMORY
          MAX_MEMORY 8000
         &END MEMORY
      &END HF
     ! &WF_CORRELATION
     ! 	&RI_RPA
     !	  QUADRATURE_POINTS 100
     ! 	  &GW
     !	    CORR_MOS_OCC -1
     !	    CORR_MOS_VIRT -1
     !	    &BSE
     !         BSE_DIAG_METHOD FULLDIAG
     !        TDA OFF
     !      &END BSE 
     !    &END GW	
     !  &END RI_RPA
     !&END WF_CORRELATION
    &END XC
    &PRINT
    &OVERLAP_CONDITION ON
    DIAGONALIZATION T
    &END OVERLAP_CONDITION
    &END PRINT
  &END DFT
    &SUBSYS
    &CELL
      ABC                 30 30 30
      ALPHA_BETA_GAMMA    90 90 90
      PERIODIC NONE
    &END CELL

     &KIND H
      BASIS_SET ORB aug-TZVP-MOLOPT-ae
      BASIS_SET RI_AUX RI_aug-TZVP-MOLOPT-ae_N_RI_023_s_p_d_f_g_h_i_4_3_2_0_0_0_0_error_4.6e-05
      POTENTIAL ALL
     &END KIND

     &KIND B
      BASIS_SET ORB aug-TZVP-MOLOPT-ae
      BASIS_SET RI_AUX RI_aug-TZVP-MOLOPT-ae_N_RI_059_s_p_d_f_g_h_i_6_5_3_2_1_0_0_error_4.2e-05
      POTENTIAL ALL
     &END KIND

     &KIND O
      BASIS_SET ORB aug-TZVP-MOLOPT-ae
      BASIS_SET RI_AUX RI_aug-TZVP-MOLOPT-ae_N_RI_084_s_p_d_f_g_h_i_7_4_3_3_2_1_0_error_6.7e-05
      POTENTIAL ALL
     &END KIND

     &KIND C
      BASIS_SET ORB aug-TZVP-MOLOPT-ae
      BASIS_SET RI_AUX RI_aug-TZVP-MOLOPT-ae_N_RI_073_s_p_d_f_g_h_i_7_4_3_3_2_0_0_error_4.5e-05
      POTENTIAL ALL
     &END KIND

    




    &TOPOLOGY
     &CENTER_COORDINATES T
     &END CENTER_COORDINATES
    &END TOPOLOGY


    &COORD
     H 37.94653113 42.93894510 32.18987125
     B 39.76458084 43.59965753 32.44986812
     O 38.68442920 43.28577665 31.66447542
     C 41.04475116 44.17814354 31.74310618
     C 41.05085205 44.37539746 30.35209513
     C 42.21423241 44.51828086 32.44404156
     H 40.16009902 44.12206853 29.77320424
     H 42.26534544 44.38394857 33.52816347
     O 39.64940355 43.38531357 33.80592014
     H 40.43686606 43.62606982 34.31315609
     O 43.03226450 45.51444441 27.54201988
     C 42.17068303 44.88888912 29.68994895
     C 43.32420053 45.21931220 30.41914217
     C 43.34232528 45.03240692 31.79582571
     C 42.12142838 45.07681344 28.22207445
     H 44.18673101 45.61813039 29.88501857
     H 44.23260980 45.28505131 32.37162163
     H 41.14937860 44.77758449 27.75392632
&END COORD
  &END SUBSYS
&END FORCE_EVAL
