&GLOBAL
  PROJECT  MoS2
  PRINT_LEVEL MEDIUM
  RUN_TYPE ENERGY
  &TIMINGS
     THRESHOLD 0.0001
  &END
  TRACE
  TRACE_MASTER
  TRACE_ROUTINES compute_chi dbt_create_2c_R dbt_create_3c_R1_R2 dbt_create G_occ_vir contract_M_occ_vir_to_chi local_dbt_to_global_fm
&END GLOBAL
&FORCE_EVAL
  METHOD Quickstep
   &DFT
    BASIS_SET_FILE_NAME /scratch/hpc-prf-metdyn/metdyn02_Remi/BASIS_AUG_MOLOPT/BASIS_ALL_MOLOPT_AUG_for_excited_states
    BASIS_SET_FILE_NAME /scratch/hpc-prf-metdyn/metdyn02_Remi/BASIS_AUG_MOLOPT/BASIS_ALL_MOLOPT_AUG_for_excited_states_RI
    BASIS_SET_FILE_NAME /scratch/hpc-prf-metdyn/metdyn02_Remi/BASIS_AUG_MOLOPT/aug-cc-pVZ
    BASIS_SET_FILE_NAME /scratch/hpc-prf-metdyn/metdyn02_Remi/BASIS_AUG_MOLOPT/aug-cc-pVZ-TOTRI
    SORT_BASIS EXP
    POTENTIAL_FILE_NAME  /pc2/groups/hpc-prf-metdyn/metdyn02_Remi/cp2k/cp2k/data/ALL_POTENTIALS 
    CHARGE 0
    &MGRID
      CUTOFF  500
      REL_CUTOFF  100
    &END MGRID
    &POISSON
      PERIODIC NONE
      POISSON_SOLVER WAVELET
    &END POISSON
    &QS
      METHOD GAPW
      EPS_DEFAULT 1.0E-12
      EPS_PGF_ORB 1.0E-12
    &END QS
    &SCF
      SCF_GUESS ATOMIC
      EPS_SCF 1.0E-6
      MAX_SCF 500
      &PRINT
        &RESTART ON
        &END
      &END
      ADDED_MOS -1
      &MIXING
          METHOD BROYDEN_MIXING
          ALPHA 0.1
          BETA 1.5
          NBROYDEN 8
      &END
      CHOLESKY OFF
    &END SCF
    &XC
      &XC_FUNCTIONAL PBE0
      &END XC_FUNCTIONAL
      &HF
         &MEMORY
          MAX_MEMORY 64000
         &END MEMORY
      &END HF
    &END XC
    &PRINT
    &OVERLAP_CONDITION ON
    DIAGONALIZATION T
    &END OVERLAP_CONDITION
    &END PRINT
  &END DFT
  &PROPERTIES
    &BANDSTRUCTURE
      &GW
        NUM_TIME_FREQ_POINTS         30
        MEMORY_PER_PROC              64
        EPS_FILTER              1.0E-11
        REGULARIZATION_RI        1.0E-2
CUTOFF_RADIUS_RI            3.0
      &END
    &END
  &END PROPERTIES

    &SUBSYS
    &CELL
      ABC                 30 30 30
      ALPHA_BETA_GAMMA    90 90 90
      PERIODIC NONE
    &END CELL

     &KIND C
      BASIS_SET ORB aug-SZV-MOLOPT-ae
      BASIS_SET RI_AUX RI_aug-SZV-MOLOPT-ae_N_RI_023_s_p_d_f_g_h_i_5_2_1_1_0_0_0_error_6.7e-04
      POTENTIAL ALL
     &END KIND

     &KIND Cl
      BASIS_SET ORB aug-SZV-MOLOPT-ae
      BASIS_SET RI_AUX RI_aug-SZV-MOLOPT-ae_N_RI_063_s_p_d_f_g_h_i_6_5_2_2_2_0_0_error_3.4e-04
      POTENTIAL ALL
     &END KIND

    




    &TOPOLOGY
     &CENTER_COORDINATES T
     &END CENTER_COORDINATES
    &END TOPOLOGY


    &COORD
     C 35.13649192 44.57120777 31.51790207
     Cl 34.74586773 41.92586063 31.07546455
     Cl 33.50024625 44.79741114 31.04853818
     Cl 35.24607396 47.25204747 31.87797096
     Cl 38.90981626 39.58422476 30.90517379
     Cl 38.39339263 42.01140846 29.39421814
     C 35.69925827 43.28553062 31.53169509
     C 35.92404838 45.67509320 31.89050073
     C 37.26473849 45.49207506 32.27353581
     C 37.81032224 44.19895459 32.28086962
     C 37.03784006 43.08617152 31.90859703
     C 37.61656481 41.72476562 31.93807844
     C 38.23562606 41.15807389 30.88338173
     Cl 38.22491507 46.84171318 32.72652728
     Cl 39.45180197 43.96205332 32.74492325
     Cl 37.45316033 40.87450517 33.43822545
&END COORD
  &END SUBSYS
&END FORCE_EVAL
