SIRIUS 7.7.0, git hash: https://api.github.com/repos/electronic-structure/SIRIUS/git/ref/tags/v7.7.0
 DBCSR| CPU Multiplication driver                                           BLAS (U)
 DBCSR| Multrec recursion limit                                              512 (U)
 DBCSR| Multiplication stack size                                           1000 (D)
 DBCSR| Maximum elements for images                                    UNLIMITED (U)
 DBCSR| Multiplicative factor virtual images                                   1 (U)
 DBCSR| Use multiplication densification                                       T (D)
 DBCSR| Multiplication size stacks                                             3 (U)
 DBCSR| Use memory pool for CPU allocation                                     F (U)
 DBCSR| Number of 3D layers                                               SINGLE (U)
 DBCSR| Use MPI memory allocation                                              F (U)
 DBCSR| Use RMA algorithm                                                      F (U)
 DBCSR| Use Communication thread                                               T (U)
 DBCSR| Communication thread load                                             75 (D)
 DBCSR| MPI: My process id                                                     0
 DBCSR| MPI: Number of processes                                             192
 DBCSR| OMP: Current number of threads                                         4
 DBCSR| OMP: Max number of threads                                             4
 DBCSR| Split modifier for TAS multiplication algorithm                  1.0E+00 (U)


  **** **** ******  **  PROGRAM STARTED AT               2025-10-25 09:06:18.368
 ***** ** ***  *** **   PROGRAM STARTED ON                                cn1201
 **    ****   ******    PROGRAM STARTED BY                              metdyn02
 ***** **    ** ** **   PROGRAM PROCESS ID                               1890761
  **** **  *******  **  PROGRAM STARTED IN /scratch/hpc-prf-metdyn/metdyn02_Remi
                                           /04_mol/Benchmark_mol_low_scal/aUKBqs
                                           EOTmq69kFe5R_nOg/5k_set_final_qzvp/MO
                                           LJED/DZVP/1e-2/3.0

 CP2K| version string:                 CP2K version 2025.2 (Development Version)
 CP2K| source code revision number:                                  git:2a4e9c4
 CP2K| cp2kflags: omp libint fftw3 libxc libgrpp elpa parallel scalapack mpi_f08
 CP2K|             cosma xsmm plumed2 spglib sirius libvori libbqb libvdwxc hdf5
 CP2K| is freely available from                            https://www.cp2k.org/
 CP2K| Program compiled at                      Fri Oct 24 04:52:17 PM CEST 2025
 CP2K| Program compiled on                                                login1
 CP2K| Program compiled for                                                local
 CP2K| Data directory path    /opt/software/pc2/EB-SW/software/CP2K/2025.2-foss-
 CP2K| Input file name                                                    GW.inp

 GLOBAL| Force Environment number                                              1
 GLOBAL| Basis set file name            /pc2/groups/hpc-prf-metdyn/metdyn02_Remi
 GLOBAL| Potential file name            /pc2/groups/hpc-prf-metdyn/metdyn02_Remi
 GLOBAL| MM Potential file name                                     MM_POTENTIAL
 GLOBAL| Coordinate file name                                      __STD_INPUT__
 GLOBAL| Method name                                                        CP2K
 GLOBAL| Project name                                                       MoS2
 GLOBAL| Run type                                                         ENERGY
 GLOBAL| FFT library                                                       FFTW3
 GLOBAL| Diagonalization library                                            ELPA
 GLOBAL| Cholesky decomposition library                                ScaLAPACK
 GLOBAL| DGEMM library                                                      BLAS
 GLOBAL| Minimum number of eigenvectors for ELPA usage                        16
 GLOBAL| Orthonormality check for eigenvectors                          DISABLED
 GLOBAL| Matrix multiplication library                                     COSMA
 GLOBAL| All-to-all communication in single precision                          F
 GLOBAL| FFTs using library dependent lengths                                  F
 GLOBAL| Grid backend                                                       AUTO
 GLOBAL| Global print level                                               MEDIUM
 GLOBAL| MPI I/O enabled                                                       T
 GLOBAL| Total number of message passing processes                           192
 GLOBAL| Number of distributed systems (nodes)                                 4
 GLOBAL| Number of threads for this process                                    4
 GLOBAL| This output is from process                                           0
 GLOBAL| OpenMP stack size per thread (OMP_STACKSIZE)                    default
 GLOBAL| CPU model name                          AMD EPYC 9655 96-Core Processor
 GLOBAL| CPUID                                                              1003

 MEMORY| system memory details [Kb]
 MEMORY|                        rank 0           min           max       average
 MEMORY| MemTotal            791039056     791039056     791039104     791039075
 MEMORY| MemFree             750470140     749755880     751031388     750553476
 MEMORY| Buffers                  3164          3164          3168          3165
 MEMORY| Cached                7849416       7670592       8071492       7815583
 MEMORY| Slab                  2150120       2091968       2171080       2128104
 MEMORY| SReclaimable           909360        881828        912196        896581
 MEMORY| MemLikelyFree       759232080     758742736     759586972     759268805


 *** Fundamental physical constants (SI units) ***

 *** Literature: B. J. Mohr and B. N. Taylor,
 ***             CODATA recommended values of the fundamental physical
 ***             constants: 2006, Web Version 5.1
 ***             http://physics.nist.gov/constants

 Speed of light in vacuum [m/s]                             2.99792458000000E+08
 Magnetic constant or permeability of vacuum [N/A**2]       1.25663706143592E-06
 Electric constant or permittivity of vacuum [F/m]          8.85418781762039E-12
 Planck constant (h) [J*s]                                  6.62606896000000E-34
 Planck constant (h-bar) [J*s]                              1.05457162825177E-34
 Elementary charge [C]                                      1.60217648700000E-19
 Electron mass [kg]                                         9.10938215000000E-31
 Electron g factor [ ]                                     -2.00231930436220E+00
 Proton mass [kg]                                           1.67262163700000E-27
 Fine-structure constant                                    7.29735253760000E-03
 Rydberg constant [1/m]                                     1.09737315685270E+07
 Avogadro constant [1/mol]                                  6.02214179000000E+23
 Boltzmann constant [J/K]                                   1.38065040000000E-23
 Atomic mass unit [kg]                                      1.66053878200000E-27
 Bohr radius [m]                                            5.29177208590000E-11

 *** Conversion factors ***

 [u] -> [a.u.]                                              1.82288848426455E+03
 [Angstrom] -> [Bohr] = [a.u.]                              1.88972613288564E+00
 [a.u.] = [Bohr] -> [Angstrom]                              5.29177208590000E-01
 [a.u.] -> [s]                                              2.41888432650478E-17
 [a.u.] -> [fs]                                             2.41888432650478E-02
 [a.u.] -> [J]                                              4.35974393937059E-18
 [a.u.] -> [N]                                              8.23872205491840E-08
 [a.u.] -> [K]                                              3.15774647902944E+05
 [a.u.] -> [kJ/mol]                                         2.62549961709828E+03
 [a.u.] -> [kcal/mol]                                       6.27509468713739E+02
 [a.u.] -> [Pa]                                             2.94210107994716E+13
 [a.u.] -> [bar]                                            2.94210107994716E+08
 [a.u.] -> [atm]                                            2.90362800883016E+08
 [a.u.] -> [eV]                                             2.72113838565563E+01
 [a.u.] -> [Hz]                                             6.57968392072181E+15
 [a.u.] -> [1/cm] (wave numbers)                            2.19474631370540E+05
 [a.u./Bohr**2] -> [1/cm]                                   5.14048714338585E+03
 

 CELL_TOP| Volume [angstrom^3]:                                     27000.000000
 CELL_TOP| Vector a [angstrom    30.000     0.000     0.000   |a| =    30.000000
 CELL_TOP| Vector b [angstrom     0.000    30.000     0.000   |b| =    30.000000
 CELL_TOP| Vector c [angstrom     0.000     0.000    30.000   |c| =    30.000000
 CELL_TOP| Angle (b,c), alpha [degree]:                                90.000000
 CELL_TOP| Angle (a,c), beta  [degree]:                                90.000000
 CELL_TOP| Angle (a,b), gamma [degree]:                                90.000000
 CELL_TOP| Numerically orthorhombic:                                         YES
 CELL_TOP| Periodicity                                                      NONE

 GENERATE|  Preliminary Number of Bonds generated:                             0
 GENERATE|  Achieved consistency in connectivity generation.

 CELL| Volume [angstrom^3]:                                         27000.000000
 CELL| Vector a [angstrom]:      30.000     0.000     0.000   |a| =    30.000000
 CELL| Vector b [angstrom]:       0.000    30.000     0.000   |b| =    30.000000
 CELL| Vector c [angstrom]:       0.000     0.000    30.000   |c| =    30.000000
 CELL| Angle (b,c), alpha [degree]:                                    90.000000
 CELL| Angle (a,c), beta  [degree]:                                    90.000000
 CELL| Angle (a,b), gamma [degree]:                                    90.000000
 CELL| Numerically orthorhombic:                                             YES
 CELL| Periodicity                                                          NONE

 CELL_REF| Volume [angstrom^3]:                                     27000.000000
 CELL_REF| Vector a [angstrom    30.000     0.000     0.000   |a| =    30.000000
 CELL_REF| Vector b [angstrom     0.000    30.000     0.000   |b| =    30.000000
 CELL_REF| Vector c [angstrom     0.000     0.000    30.000   |c| =    30.000000
 CELL_REF| Angle (b,c), alpha [degree]:                                90.000000
 CELL_REF| Angle (a,c), beta  [degree]:                                90.000000
 CELL_REF| Angle (a,b), gamma [degree]:                                90.000000
 CELL_REF| Numerically orthorhombic:                                         YES
 CELL_REF| Periodicity                                                      NONE

 *******************************************************************************
 *******************************************************************************
 **                                                                           **
 **     #####                         ##              ##                      **
 **    ##   ##            ##          ##              ##                      **
 **   ##     ##                       ##            ######                    **
 **   ##     ##  ##   ##  ##   #####  ##  ##   ####   ##    #####    #####    **
 **   ##     ##  ##   ##  ##  ##      ## ##   ##      ##   ##   ##  ##   ##   **
 **   ##  ## ##  ##   ##  ##  ##      ####     ###    ##   ######   ######    **
 **    ##  ###   ##   ##  ##  ##      ## ##      ##   ##   ##       ##        **
 **     #######   #####   ##   #####  ##  ##  ####    ##    #####   ##        **
 **           ##                                                    ##        **
 **                                                                           **
 **                                                ... make the atoms dance   **
 **                                                                           **
 **            Copyright (C) by CP2K developers group (2000-2025)             **
 **                      J. Chem. Phys. 152, 194103 (2020)                    **
 **                                                                           **
 *******************************************************************************

 DFT| Spin restricted Kohn-Sham (RKS) calculation                            RKS
 DFT| Multiplicity                                                             1
 DFT| Number of spin states                                                    1
 DFT| Charge                                                                   0
 DFT| Self-interaction correction (SIC)                                       NO
 DFT| Cutoffs: density                                              1.000000E-10
 DFT|          gradient                                             1.000000E-10
 DFT|          tau                                                  1.000000E-10
 DFT|          cutoff_smoothing_range                               0.000000E+00
 DFT| XC density smoothing                                                  NONE
 DFT| XC derivatives                                                          PW

 FUNCTIONAL| PBE:
 FUNCTIONAL| J.P.Perdew, K.Burke, M.Ernzerhof, Phys. Rev. Letter, vol. 77, n 18,
 FUNCTIONAL|  pp. 3865-3868, (1996)sx=0.750sc=1.000{spin unpolarized}           


 QS| Method:                                                                GAPW
 QS| Density plane wave grid type                        NON-SPHERICAL FULLSPACE
 QS| Number of grid levels:                                                    4
 QS| Density cutoff [a.u.]:                                                250.0
 QS| Multi grid cutoff [a.u.]: 1) grid level                               250.0
 QS|                           2) grid level                                83.3
 QS|                           3) grid level                                27.8
 QS|                           4) grid level                                 9.3
 QS| Grid level progression factor:                                          3.0
 QS| Relative density cutoff [a.u.]:                                        50.0
 QS| Interaction thresholds: eps_pgf_orb:                                1.0E-12
 QS|                         eps_filter_matrix:                          0.0E+00
 QS|                         eps_core_charge:                            1.0E-14
 QS|                         eps_rho_gspace:                             1.0E-12
 QS|                         eps_rho_rspace:                             1.0E-12
 QS|                         eps_gvg_rspace:                             1.0E-06
 QS|                         eps_ppl:                                    1.0E-02
 QS|                         eps_ppnl:                                   1.0E-08
 QS| GAPW|      One center basis from orbital basis primitives
 QS| GAPW|                   eps_fit:                                    1.0E-04
 QS| GAPW|                   eps_iso:                                    1.0E-12
 QS| GAPW|                   eps_svd:                                    1.0E-08
 QS| GAPW|                   eps_cpc:                                    1.0E-12
 QS| GAPW|   atom-r-grid: quadrature:                                     GC_LOG
 QS| GAPW|      atom-s-grid:  max l :                                          6
 QS| GAPW|      max_l_rho0 :                                                   2


 ATOMIC KIND INFORMATION

  1. Atomic kind: C                                     Number of atoms:       4

     Orbital Basis Set                                        aug-DZVP-MOLOPT-ae

       Number of orbital shell sets:                                           2
       Number of orbital shells:                                              10
       Number of primitive Cartesian functions:                               13
       Number of Cartesian basis functions:                                   35
       Number of spherical basis functions:                                   30
       Norm type:                                                              2

       Normalised Cartesian orbitals:

                        Set   Shell   Orbital            Exponent    Coefficient

                          1       1    2px               0.050000       0.000000
                                                         0.096935       0.005344
                                                         0.300899       0.144116
                                                         0.937529       0.673511
                                                         4.145546       1.425967
                          1       1    2py               0.050000       0.000000
                                                         0.096935       0.005344
                                                         0.300899       0.144116
                                                         0.937529       0.673511
                                                         4.145546       1.425967
                          1       1    2pz               0.050000       0.000000
                                                         0.096935       0.005344
                                                         0.300899       0.144116
                                                         0.937529       0.673511
                                                         4.145546       1.425967

                          1       2    3px               0.050000       0.000000
                                                         0.096935       0.066903
                                                         0.300899       0.082631
                                                         0.937529      -0.414500
                                                         4.145546      -0.833488
                          1       2    3py               0.050000       0.000000
                                                         0.096935       0.066903
                                                         0.300899       0.082631
                                                         0.937529      -0.414500
                                                         4.145546      -0.833488
                          1       2    3pz               0.050000       0.000000
                                                         0.096935       0.066903
                                                         0.300899       0.082631
                                                         0.937529      -0.414500
                                                         4.145546      -0.833488

                          1       3    4px               0.050000       0.052477
                                                         0.096935      -0.149600
                                                         0.300899      -0.031452
                                                         0.937529       0.106528
                                                         4.145546       0.000000
                          1       3    4py               0.050000       0.052477
                                                         0.096935      -0.149600
                                                         0.300899      -0.031452
                                                         0.937529       0.106528
                                                         4.145546       0.000000
                          1       3    4pz               0.050000       0.052477
                                                         0.096935      -0.149600
                                                         0.300899      -0.031452
                                                         0.937529       0.106528
                                                         4.145546       0.000000

                          1       4    3dx2              0.050000       0.000000
                                                         0.096935       0.001258
                                                         0.300899       0.105504
                                                         0.937529       0.830801
                                                         4.145546       0.718979
                          1       4    3dxy              0.050000       0.000000
                                                         0.096935       0.002179
                                                         0.300899       0.182739
                                                         0.937529       1.438990
                                                         4.145546       1.245309
                          1       4    3dxz              0.050000       0.000000
                                                         0.096935       0.002179
                                                         0.300899       0.182739
                                                         0.937529       1.438990
                                                         4.145546       1.245309
                          1       4    3dy2              0.050000       0.000000
                                                         0.096935       0.001258
                                                         0.300899       0.105504
                                                         0.937529       0.830801
                                                         4.145546       0.718979
                          1       4    3dyz              0.050000       0.000000
                                                         0.096935       0.002179
                                                         0.300899       0.182739
                                                         0.937529       1.438990
                                                         4.145546       1.245309
                          1       4    3dz2              0.050000       0.000000
                                                         0.096935       0.001258
                                                         0.300899       0.105504
                                                         0.937529       0.830801
                                                         4.145546       0.718979

                          1       5    4dx2              0.050000      -0.011665
                                                         0.096935       0.057456
                                                         0.300899      -0.258169
                                                         0.937529       0.000000
                                                         4.145546       0.000000
                          1       5    4dxy              0.050000      -0.020204
                                                         0.096935       0.099516
                                                         0.300899      -0.447162
                                                         0.937529       0.000000
                                                         4.145546       0.000000
                          1       5    4dxz              0.050000      -0.020204
                                                         0.096935       0.099516
                                                         0.300899      -0.447162
                                                         0.937529       0.000000
                                                         4.145546       0.000000
                          1       5    4dy2              0.050000      -0.011665
                                                         0.096935       0.057456
                                                         0.300899      -0.258169
                                                         0.937529       0.000000
                                                         4.145546       0.000000
                          1       5    4dyz              0.050000      -0.020204
                                                         0.096935       0.099516
                                                         0.300899      -0.447162
                                                         0.937529       0.000000
                                                         4.145546       0.000000
                          1       5    4dz2              0.050000      -0.011665
                                                         0.096935       0.057456
                                                         0.300899      -0.258169
                                                         0.937529       0.000000
                                                         4.145546       0.000000

                          1       6    4fx3              0.050000      -0.000180
                                                         0.096935       0.008160
                                                         0.300899       0.004002
                                                         0.937529       0.000000
                                                         4.145546       0.000000
                          1       6    4fx2y             0.050000      -0.000402
                                                         0.096935       0.018246
                                                         0.300899       0.008949
                                                         0.937529       0.000000
                                                         4.145546       0.000000
                          1       6    4fx2z             0.050000      -0.000402
                                                         0.096935       0.018246
                                                         0.300899       0.008949
                                                         0.937529       0.000000
                                                         4.145546       0.000000
                          1       6    4fxy2             0.050000      -0.000402
                                                         0.096935       0.018246
                                                         0.300899       0.008949
                                                         0.937529       0.000000
                                                         4.145546       0.000000
                          1       6    4fxyz             0.050000      -0.000696
                                                         0.096935       0.031603
                                                         0.300899       0.015500
                                                         0.937529       0.000000
                                                         4.145546       0.000000
                          1       6    4fxz2             0.050000      -0.000402
                                                         0.096935       0.018246
                                                         0.300899       0.008949
                                                         0.937529       0.000000
                                                         4.145546       0.000000
                          1       6    4fy3              0.050000      -0.000180
                                                         0.096935       0.008160
                                                         0.300899       0.004002
                                                         0.937529       0.000000
                                                         4.145546       0.000000
                          1       6    4fy2z             0.050000      -0.000402
                                                         0.096935       0.018246
                                                         0.300899       0.008949
                                                         0.937529       0.000000
                                                         4.145546       0.000000
                          1       6    4fyz2             0.050000      -0.000402
                                                         0.096935       0.018246
                                                         0.300899       0.008949
                                                         0.937529       0.000000
                                                         4.145546       0.000000
                          1       6    4fz3              0.050000      -0.000180
                                                         0.096935       0.008160
                                                         0.300899       0.004002
                                                         0.937529       0.000000
                                                         4.145546       0.000000

                          2       1    1s                0.060000       0.000000
                                                         0.161278       0.024253
                                                         0.523772      -0.029268
                                                         3.176528       0.666384
                                                        10.501907       2.110671
                                                        40.805234       2.242010
                                                       186.270922       1.801845
                                                      1238.394264      -0.490536

                          2       2    2s                0.060000       0.000000
                                                         0.161278       0.080328
                                                         0.523772       0.279468
                                                         3.176528      -0.079506
                                                        10.501907      -0.033488
                                                        40.805234       0.350132
                                                       186.270922      -0.108171
                                                      1238.394264       0.147138

                          2       3    3s                0.060000       0.000000
                                                         0.161278       0.225687
                                                         0.523772      -0.382710
                                                         3.176528      -0.308205
                                                        10.501907      -0.974990
                                                        40.805234      -2.174132
                                                       186.270922       1.755878
                                                      1238.394264     -12.484315

                          2       4    4s                0.060000      -0.055653
                                                         0.161278      -0.019607
                                                         0.523772       0.500289
                                                         3.176528       0.067234
                                                        10.501907       0.000000
                                                        40.805234       0.000000
                                                       186.270922       0.000000
                                                      1238.394264       0.000000

     RI Auxiliary Basis Set             RI_aug-DZVP-MOLOPT-ae_N_RI_018_s_p_d_f_g

       Number of orbital shell sets:                                           8
       Number of orbital shells:                                               8
       Number of primitive Cartesian functions:                                8
       Number of Cartesian basis functions:                                   19
       Number of spherical basis functions:                                   18
       Norm type:                                                              2

       Normalised Cartesian orbitals:

                        Set   Shell   Orbital            Exponent    Coefficient

                          1       1    5px               0.226574       0.222819
                          1       1    5py               0.226574       0.222819
                          1       1    5pz               0.226574       0.222819

                          2       1    1s                0.271170       0.267819

                          3       1    8dx2              1.020768       1.706208
                          3       1    8dxy              1.020768       2.955238
                          3       1    8dxz              1.020768       2.955238
                          3       1    8dy2              1.020768       1.706208
                          3       1    8dyz              1.020768       2.955238
                          3       1    8dz2              1.020768       1.706208

                          4       1    2s                1.522307       0.976758

                          5       1    6px               1.658837       2.683457
                          5       1    6py               1.658837       2.683457
                          5       1    6pz               1.658837       2.683457

                          6       1    3s               14.506602       5.297663

                          7       1    7px              23.847910      75.119554
                          7       1    7py              23.847910      75.119554
                          7       1    7pz              23.847910      75.119554

                          8       1    4s              102.384866      22.939657

       Atomic covalent radius [Angstrom]:                                  0.770

       Atomic van der Waals radius [Angstrom]:                             1.700

     The atoms of this atomic kind are PAW atoms (GAPW):
       Hard Gaussian function radius:                                      1.512
       Rho0 radius:                                                        1.512
       Maximum GTO radius used for PAW projector construction:            24.566

     GAPW Soft Basis Set                                 aug-DZVP-MOLOPT-ae_soft

       Number of orbital shell sets:                                           2
       Number of orbital shells:                                              10
       Number of primitive Cartesian functions:                                9
       Number of Cartesian basis functions:                                   35
       Number of spherical basis functions:                                   30
       Norm type:                                                              2

       Normalised Cartesian orbitals:

                        Set   Shell   Orbital            Exponent    Coefficient

                          1       1    2px               0.050000       0.000000
                                                         0.096935       0.005344
                                                         0.300899       0.144116
                                                         0.937529       0.673511
                                                         4.145546       1.425967
                          1       1    2py               0.050000       0.000000
                                                         0.096935       0.005344
                                                         0.300899       0.144116
                                                         0.937529       0.673511
                                                         4.145546       1.425967
                          1       1    2pz               0.050000       0.000000
                                                         0.096935       0.005344
                                                         0.300899       0.144116
                                                         0.937529       0.673511
                                                         4.145546       1.425967

                          1       2    3px               0.050000       0.000000
                                                         0.096935       0.066903
                                                         0.300899       0.082631
                                                         0.937529      -0.414500
                                                         4.145546      -0.833488
                          1       2    3py               0.050000       0.000000
                                                         0.096935       0.066903
                                                         0.300899       0.082631
                                                         0.937529      -0.414500
                                                         4.145546      -0.833488
                          1       2    3pz               0.050000       0.000000
                                                         0.096935       0.066903
                                                         0.300899       0.082631
                                                         0.937529      -0.414500
                                                         4.145546      -0.833488

                          1       3    4px               0.050000       0.052477
                                                         0.096935      -0.149600
                                                         0.300899      -0.031452
                                                         0.937529       0.106528
                                                         4.145546       0.000000
                          1       3    4py               0.050000       0.052477
                                                         0.096935      -0.149600
                                                         0.300899      -0.031452
                                                         0.937529       0.106528
                                                         4.145546       0.000000
                          1       3    4pz               0.050000       0.052477
                                                         0.096935      -0.149600
                                                         0.300899      -0.031452
                                                         0.937529       0.106528
                                                         4.145546       0.000000

                          1       4    3dx2              0.050000       0.000000
                                                         0.096935       0.001258
                                                         0.300899       0.105504
                                                         0.937529       0.830801
                                                         4.145546       0.718979
                          1       4    3dxy              0.050000       0.000000
                                                         0.096935       0.002179
                                                         0.300899       0.182739
                                                         0.937529       1.438990
                                                         4.145546       1.245309
                          1       4    3dxz              0.050000       0.000000
                                                         0.096935       0.002179
                                                         0.300899       0.182739
                                                         0.937529       1.438990
                                                         4.145546       1.245309
                          1       4    3dy2              0.050000       0.000000
                                                         0.096935       0.001258
                                                         0.300899       0.105504
                                                         0.937529       0.830801
                                                         4.145546       0.718979
                          1       4    3dyz              0.050000       0.000000
                                                         0.096935       0.002179
                                                         0.300899       0.182739
                                                         0.937529       1.438990
                                                         4.145546       1.245309
                          1       4    3dz2              0.050000       0.000000
                                                         0.096935       0.001258
                                                         0.300899       0.105504
                                                         0.937529       0.830801
                                                         4.145546       0.718979

                          1       5    4dx2              0.050000      -0.011665
                                                         0.096935       0.057456
                                                         0.300899      -0.258169
                                                         0.937529       0.000000
                                                         4.145546       0.000000
                          1       5    4dxy              0.050000      -0.020204
                                                         0.096935       0.099516
                                                         0.300899      -0.447162
                                                         0.937529       0.000000
                                                         4.145546       0.000000
                          1       5    4dxz              0.050000      -0.020204
                                                         0.096935       0.099516
                                                         0.300899      -0.447162
                                                         0.937529       0.000000
                                                         4.145546       0.000000
                          1       5    4dy2              0.050000      -0.011665
                                                         0.096935       0.057456
                                                         0.300899      -0.258169
                                                         0.937529       0.000000
                                                         4.145546       0.000000
                          1       5    4dyz              0.050000      -0.020204
                                                         0.096935       0.099516
                                                         0.300899      -0.447162
                                                         0.937529       0.000000
                                                         4.145546       0.000000
                          1       5    4dz2              0.050000      -0.011665
                                                         0.096935       0.057456
                                                         0.300899      -0.258169
                                                         0.937529       0.000000
                                                         4.145546       0.000000

                          1       6    4fx3              0.050000      -0.000180
                                                         0.096935       0.008160
                                                         0.300899       0.004002
                                                         0.937529       0.000000
                                                         4.145546       0.000000
                          1       6    4fx2y             0.050000      -0.000402
                                                         0.096935       0.018246
                                                         0.300899       0.008949
                                                         0.937529       0.000000
                                                         4.145546       0.000000
                          1       6    4fx2z             0.050000      -0.000402
                                                         0.096935       0.018246
                                                         0.300899       0.008949
                                                         0.937529       0.000000
                                                         4.145546       0.000000
                          1       6    4fxy2             0.050000      -0.000402
                                                         0.096935       0.018246
                                                         0.300899       0.008949
                                                         0.937529       0.000000
                                                         4.145546       0.000000
                          1       6    4fxyz             0.050000      -0.000696
                                                         0.096935       0.031603
                                                         0.300899       0.015500
                                                         0.937529       0.000000
                                                         4.145546       0.000000
                          1       6    4fxz2             0.050000      -0.000402
                                                         0.096935       0.018246
                                                         0.300899       0.008949
                                                         0.937529       0.000000
                                                         4.145546       0.000000
                          1       6    4fy3              0.050000      -0.000180
                                                         0.096935       0.008160
                                                         0.300899       0.004002
                                                         0.937529       0.000000
                                                         4.145546       0.000000
                          1       6    4fy2z             0.050000      -0.000402
                                                         0.096935       0.018246
                                                         0.300899       0.008949
                                                         0.937529       0.000000
                                                         4.145546       0.000000
                          1       6    4fyz2             0.050000      -0.000402
                                                         0.096935       0.018246
                                                         0.300899       0.008949
                                                         0.937529       0.000000
                                                         4.145546       0.000000
                          1       6    4fz3              0.050000      -0.000180
                                                         0.096935       0.008160
                                                         0.300899       0.004002
                                                         0.937529       0.000000
                                                         4.145546       0.000000

                          2       1    1s                0.060000       0.000000
                                                         0.161278       0.024253
                                                         0.523772      -0.029268
                                                         3.176528       0.666384

                          2       2    2s                0.060000       0.000000
                                                         0.161278       0.080328
                                                         0.523772       0.279468
                                                         3.176528      -0.079506

                          2       3    3s                0.060000       0.000000
                                                         0.161278       0.225687
                                                         0.523772      -0.382710
                                                         3.176528      -0.308205

                          2       4    4s                0.060000      -0.055653
                                                         0.161278      -0.019607
                                                         0.523772       0.500289
                                                         3.176528       0.067234

     AE Potential information for                                            ALL

       Description:                                       All-electron potential
                                          Krack, Parrinello, PCCP 2, 2105 (2000)

       Gaussian exponent of the core charge distribution:               4.109048
       Electronic configuration (s p d ...):                           4   2   0

  2. Atomic kind: H                                     Number of atoms:       6

     Orbital Basis Set                                        aug-DZVP-MOLOPT-ae

       Number of orbital shell sets:                                           1
       Number of orbital shells:                                               5
       Number of primitive Cartesian functions:                                5
       Number of Cartesian basis functions:                                    9
       Number of spherical basis functions:                                    9
       Norm type:                                                              2

       Normalised Cartesian orbitals:

                        Set   Shell   Orbital            Exponent    Coefficient

                          1       1    2s                0.035000       0.000000
                                                         0.111920       0.009149
                                                         0.374948       0.205449
                                                         1.446686       0.373852
                                                        12.248855       0.310040

                          1       2    3s                0.035000       0.000000
                                                         0.111920       0.143650
                                                         0.374948       0.007287
                                                         1.446686      -0.188851
                                                        12.248855      -0.144753

                          1       3    4s                0.035000       0.090463
                                                         0.111920      -0.203934
                                                         0.374948      -0.000376
                                                         1.446686      -0.000051
                                                        12.248855       0.000000

                          1       4    3px               0.035000       0.000000
                                                         0.111920       0.007225
                                                         0.374948       0.280770
                                                         1.446686       0.896497
                                                        12.248855      -0.764411
                          1       4    3py               0.035000       0.000000
                                                         0.111920       0.007225
                                                         0.374948       0.280770
                                                         1.446686       0.896497
                                                        12.248855      -0.764411
                          1       4    3pz               0.035000       0.000000
                                                         0.111920       0.007225
                                                         0.374948       0.280770
                                                         1.446686       0.896497
                                                        12.248855      -0.764411

                          1       5    4px               0.035000       0.011331
                                                         0.111920       0.048737
                                                         0.374948       0.028490
                                                         1.446686       0.035587
                                                        12.248855       0.000000
                          1       5    4py               0.035000       0.011331
                                                         0.111920       0.048737
                                                         0.374948       0.028490
                                                         1.446686       0.035587
                                                        12.248855       0.000000
                          1       5    4pz               0.035000       0.011331
                                                         0.111920       0.048737
                                                         0.374948       0.028490
                                                         1.446686       0.035587
                                                        12.248855       0.000000

     RI Auxiliary Basis Set             RI_aug-DZVP-MOLOPT-ae_N_RI_005_s_p_d_f_g

       Number of orbital shell sets:                                           3
       Number of orbital shells:                                               3
       Number of primitive Cartesian functions:                                3
       Number of Cartesian basis functions:                                    5
       Number of spherical basis functions:                                    5
       Norm type:                                                              2

       Normalised Cartesian orbitals:

                        Set   Shell   Orbital            Exponent    Coefficient

                          1       1    1s                0.602033       0.487108

                          2       1    3px               1.106593       1.617801
                          2       1    3py               1.106593       1.617801
                          2       1    3pz               1.106593       1.617801

                          3       1    2s                2.055112       1.223311

       Atomic covalent radius [Angstrom]:                                  0.320

       Atomic van der Waals radius [Angstrom]:                             1.090

     The atoms of this atomic kind are PAW atoms (GAPW):
       Hard Gaussian function radius:                                      1.200
       Rho0 radius:                                                        1.200
       Maximum GTO radius used for PAW projector construction:            24.566

     GAPW Soft Basis Set                                 aug-DZVP-MOLOPT-ae_soft

       Number of orbital shell sets:                                           1
       Number of orbital shells:                                               5
       Number of primitive Cartesian functions:                                4
       Number of Cartesian basis functions:                                    9
       Number of spherical basis functions:                                    9
       Norm type:                                                              2

       Normalised Cartesian orbitals:

                        Set   Shell   Orbital            Exponent    Coefficient

                          1       1    2s                0.035000       0.000000
                                                         0.111920       0.009149
                                                         0.374948       0.205449
                                                         1.446686       0.373852

                          1       2    3s                0.035000       0.000000
                                                         0.111920       0.143650
                                                         0.374948       0.007287
                                                         1.446686      -0.188851

                          1       3    4s                0.035000       0.090463
                                                         0.111920      -0.203934
                                                         0.374948      -0.000376
                                                         1.446686      -0.000051

                          1       4    3px               0.035000       0.000000
                                                         0.111920       0.007225
                                                         0.374948       0.280770
                                                         1.446686       0.896497
                          1       4    3py               0.035000       0.000000
                                                         0.111920       0.007225
                                                         0.374948       0.280770
                                                         1.446686       0.896497
                          1       4    3pz               0.035000       0.000000
                                                         0.111920       0.007225
                                                         0.374948       0.280770
                                                         1.446686       0.896497

                          1       5    4px               0.035000       0.011331
                                                         0.111920       0.048737
                                                         0.374948       0.028490
                                                         1.446686       0.035587
                          1       5    4py               0.035000       0.011331
                                                         0.111920       0.048737
                                                         0.374948       0.028490
                                                         1.446686       0.035587
                          1       5    4pz               0.035000       0.011331
                                                         0.111920       0.048737
                                                         0.374948       0.028490
                                                         1.446686       0.035587

     AE Potential information for                                            ALL

       Description:                                       All-electron potential
                                          Krack, Parrinello, PCCP 2, 2105 (2000)

       Gaussian exponent of the core charge distribution:              12.500000
       Electronic configuration (s p d ...):                           1   0   0

  3. Atomic kind: S                                     Number of atoms:       2

     Orbital Basis Set                                        aug-DZVP-MOLOPT-ae

       Number of orbital shell sets:                                           3
       Number of orbital shells:                                              12
       Number of primitive Cartesian functions:                               18
       Number of Cartesian basis functions:                                   39
       Number of spherical basis functions:                                   34
       Norm type:                                                              2

       Normalised Cartesian orbitals:

                        Set   Shell   Orbital            Exponent    Coefficient

                          1       1    1s                0.070000       0.160238
                                                         0.132026      -0.106319
                                                         0.461903      -0.064590
                                                         2.043261       0.000000
                                                         6.030247       0.000000
                                                        18.817576       0.000000
                                                        61.243244       0.000000
                                                       262.037180       0.000000

                          1       2    2px               0.070000       0.000000
                                                         0.132026      -0.006041
                                                         0.461903       0.020884
                                                         2.043261      -1.163342
                                                         6.030247      -7.192527
                                                        18.817576     -14.902856
                                                        61.243244     -16.017959
                                                       262.037180     -14.606063
                          1       2    2py               0.070000       0.000000
                                                         0.132026      -0.006041
                                                         0.461903       0.020884
                                                         2.043261      -1.163342
                                                         6.030247      -7.192527
                                                        18.817576     -14.902856
                                                        61.243244     -16.017959
                                                       262.037180     -14.606063
                          1       2    2pz               0.070000       0.000000
                                                         0.132026      -0.006041
                                                         0.461903       0.020884
                                                         2.043261      -1.163342
                                                         6.030247      -7.192527
                                                        18.817576     -14.902856
                                                        61.243244     -16.017959
                                                       262.037180     -14.606063

                          1       3    3px               0.070000       0.000000
                                                         0.132026       0.013372
                                                         0.461903       0.460806
                                                         2.043261       0.527227
                                                         6.030247      -0.800963
                                                        18.817576       1.692650
                                                        61.243244      -2.127051
                                                       262.037180       6.627568
                          1       3    3py               0.070000       0.000000
                                                         0.132026       0.013372
                                                         0.461903       0.460806
                                                         2.043261       0.527227
                                                         6.030247      -0.800963
                                                        18.817576       1.692650
                                                        61.243244      -2.127051
                                                       262.037180       6.627568
                          1       3    3pz               0.070000       0.000000
                                                         0.132026       0.013372
                                                         0.461903       0.460806
                                                         2.043261       0.527227
                                                         6.030247      -0.800963
                                                        18.817576       1.692650
                                                        61.243244      -2.127051
                                                       262.037180       6.627568

                          1       4    4px               0.070000       0.000000
                                                         0.132026       0.122461
                                                         0.461903      -0.074630
                                                         2.043261      -0.266435
                                                         6.030247      -0.600117
                                                        18.817576      -2.837173
                                                        61.243244       0.679283
                                                       262.037180      -9.723876
                          1       4    4py               0.070000       0.000000
                                                         0.132026       0.122461
                                                         0.461903      -0.074630
                                                         2.043261      -0.266435
                                                         6.030247      -0.600117
                                                        18.817576      -2.837173
                                                        61.243244       0.679283
                                                       262.037180      -9.723876
                          1       4    4pz               0.070000       0.000000
                                                         0.132026       0.122461
                                                         0.461903      -0.074630
                                                         2.043261      -0.266435
                                                         6.030247      -0.600117
                                                        18.817576      -2.837173
                                                        61.243244       0.679283
                                                       262.037180      -9.723876

                          1       5    5px               0.070000      -0.010761
                                                         0.132026      -0.065366
                                                         0.461903       0.662552
                                                         2.043261       0.000000
                                                         6.030247       0.000000
                                                        18.817576       0.000000
                                                        61.243244       0.000000
                                                       262.037180       0.000000
                          1       5    5py               0.070000      -0.010761
                                                         0.132026      -0.065366
                                                         0.461903       0.662552
                                                         2.043261       0.000000
                                                         6.030247       0.000000
                                                        18.817576       0.000000
                                                        61.243244       0.000000
                                                       262.037180       0.000000
                          1       5    5pz               0.070000      -0.010761
                                                         0.132026      -0.065366
                                                         0.461903       0.662552
                                                         2.043261       0.000000
                                                         6.030247       0.000000
                                                        18.817576       0.000000
                                                        61.243244       0.000000
                                                       262.037180       0.000000

                          1       6    3dx2              0.070000       0.000000
                                                         0.132026       0.010167
                                                         0.461903       0.321348
                                                         2.043261       1.422467
                                                         6.030247      -0.691425
                                                        18.817576       4.642944
                                                        61.243244     -11.887587
                                                       262.037180      63.210336
                          1       6    3dxy              0.070000       0.000000
                                                         0.132026       0.017609
                                                         0.461903       0.556591
                                                         2.043261       2.463785
                                                         6.030247      -1.197583
                                                        18.817576       8.041814
                                                        61.243244     -20.589904
                                                       262.037180     109.483513
                          1       6    3dxz              0.070000       0.000000
                                                         0.132026       0.017609
                                                         0.461903       0.556591
                                                         2.043261       2.463785
                                                         6.030247      -1.197583
                                                        18.817576       8.041814
                                                        61.243244     -20.589904
                                                       262.037180     109.483513
                          1       6    3dy2              0.070000       0.000000
                                                         0.132026       0.010167
                                                         0.461903       0.321348
                                                         2.043261       1.422467
                                                         6.030247      -0.691425
                                                        18.817576       4.642944
                                                        61.243244     -11.887587
                                                       262.037180      63.210336
                          1       6    3dyz              0.070000       0.000000
                                                         0.132026       0.017609
                                                         0.461903       0.556591
                                                         2.043261       2.463785
                                                         6.030247      -1.197583
                                                        18.817576       8.041814
                                                        61.243244     -20.589904
                                                       262.037180     109.483513
                          1       6    3dz2              0.070000       0.000000
                                                         0.132026       0.010167
                                                         0.461903       0.321348
                                                         2.043261       1.422467
                                                         6.030247      -0.691425
                                                        18.817576       4.642944
                                                        61.243244     -11.887587
                                                       262.037180      63.210336

                          1       7    4dx2              0.070000       0.004993
                                                         0.132026       0.031835
                                                         0.461903       0.041246
                                                         2.043261       0.000000
                                                         6.030247       0.000000
                                                        18.817576       0.000000
                                                        61.243244       0.000000
                                                       262.037180       0.000000
                          1       7    4dxy              0.070000       0.008648
                                                         0.132026       0.055140
                                                         0.461903       0.071440
                                                         2.043261       0.000000
                                                         6.030247       0.000000
                                                        18.817576       0.000000
                                                        61.243244       0.000000
                                                       262.037180       0.000000
                          1       7    4dxz              0.070000       0.008648
                                                         0.132026       0.055140
                                                         0.461903       0.071440
                                                         2.043261       0.000000
                                                         6.030247       0.000000
                                                        18.817576       0.000000
                                                        61.243244       0.000000
                                                       262.037180       0.000000
                          1       7    4dy2              0.070000       0.004993
                                                         0.132026       0.031835
                                                         0.461903       0.041246
                                                         2.043261       0.000000
                                                         6.030247       0.000000
                                                        18.817576       0.000000
                                                        61.243244       0.000000
                                                       262.037180       0.000000
                          1       7    4dyz              0.070000       0.008648
                                                         0.132026       0.055140
                                                         0.461903       0.071440
                                                         2.043261       0.000000
                                                         6.030247       0.000000
                                                        18.817576       0.000000
                                                        61.243244       0.000000
                                                       262.037180       0.000000
                          1       7    4dz2              0.070000       0.004993
                                                         0.132026       0.031835
                                                         0.461903       0.041246
                                                         2.043261       0.000000
                                                         6.030247       0.000000
                                                        18.817576       0.000000
                                                        61.243244       0.000000
                                                       262.037180       0.000000

                          1       8    4fx3              0.070000       0.001179
                                                         0.132026       0.004915
                                                         0.461903       0.162520
                                                         2.043261       0.000000
                                                         6.030247       0.000000
                                                        18.817576       0.000000
                                                        61.243244       0.000000
                                                       262.037180       0.000000
                          1       8    4fx2y             0.070000       0.002636
                                                         0.132026       0.010991
                                                         0.461903       0.363406
                                                         2.043261       0.000000
                                                         6.030247       0.000000
                                                        18.817576       0.000000
                                                        61.243244       0.000000
                                                       262.037180       0.000000
                          1       8    4fx2z             0.070000       0.002636
                                                         0.132026       0.010991
                                                         0.461903       0.363406
                                                         2.043261       0.000000
                                                         6.030247       0.000000
                                                        18.817576       0.000000
                                                        61.243244       0.000000
                                                       262.037180       0.000000
                          1       8    4fxy2             0.070000       0.002636
                                                         0.132026       0.010991
                                                         0.461903       0.363406
                                                         2.043261       0.000000
                                                         6.030247       0.000000
                                                        18.817576       0.000000
                                                        61.243244       0.000000
                                                       262.037180       0.000000
                          1       8    4fxyz             0.070000       0.004567
                                                         0.132026       0.019037
                                                         0.461903       0.629438
                                                         2.043261       0.000000
                                                         6.030247       0.000000
                                                        18.817576       0.000000
                                                        61.243244       0.000000
                                                       262.037180       0.000000
                          1       8    4fxz2             0.070000       0.002636
                                                         0.132026       0.010991
                                                         0.461903       0.363406
                                                         2.043261       0.000000
                                                         6.030247       0.000000
                                                        18.817576       0.000000
                                                        61.243244       0.000000
                                                       262.037180       0.000000
                          1       8    4fy3              0.070000       0.001179
                                                         0.132026       0.004915
                                                         0.461903       0.162520
                                                         2.043261       0.000000
                                                         6.030247       0.000000
                                                        18.817576       0.000000
                                                        61.243244       0.000000
                                                       262.037180       0.000000
                          1       8    4fy2z             0.070000       0.002636
                                                         0.132026       0.010991
                                                         0.461903       0.363406
                                                         2.043261       0.000000
                                                         6.030247       0.000000
                                                        18.817576       0.000000
                                                        61.243244       0.000000
                                                       262.037180       0.000000
                          1       8    4fyz2             0.070000       0.002636
                                                         0.132026       0.010991
                                                         0.461903       0.363406
                                                         2.043261       0.000000
                                                         6.030247       0.000000
                                                        18.817576       0.000000
                                                        61.243244       0.000000
                                                       262.037180       0.000000
                          1       8    4fz3              0.070000       0.001179
                                                         0.132026       0.004915
                                                         0.461903       0.162520
                                                         2.043261       0.000000
                                                         6.030247       0.000000
                                                        18.817576       0.000000
                                                        61.243244       0.000000
                                                       262.037180       0.000000

                          2       1    1s               45.482850      -1.175639
                                                         4.876333       1.431452
                                                         1.864066       0.572778
                                                         0.430250      -0.034078
                                                         0.152872       0.004775

                          2       2    2s               45.482850      -0.314552
                                                         4.876333       0.236776
                                                         1.864066      -0.009167
                                                         0.430250       0.282804
                                                         0.152872       0.044200

                          2       3    3s               45.482850       0.143312
                                                         4.876333      -0.094249
                                                         1.864066      -0.118759
                                                         0.430250      -0.172982
                                                         0.152872       0.236834

                          3       1    1s             9184.968607      -3.488008
                                                      1381.514008      -6.811623
                                                       313.892819      -9.517673
                                                        87.514579     -10.059465
                                                        25.931396      -3.470689

     RI Auxiliary Basis Set             RI_aug-DZVP-MOLOPT-ae_N_RI_048_s_p_d_f_g

       Number of orbital shell sets:                                          16
       Number of orbital shells:                                              16
       Number of primitive Cartesian functions:                               16
       Number of Cartesian basis functions:                                   57
       Number of spherical basis functions:                                   48
       Norm type:                                                              2

       Normalised Cartesian orbitals:

                        Set   Shell   Orbital            Exponent    Coefficient

                          1       1   15fx3              0.269339       0.076936
                          1       1   15fx2y             0.269339       0.172033
                          1       1   15fx2z             0.269339       0.172033
                          1       1   15fxy2             0.269339       0.172033
                          1       1   15fxyz             0.269339       0.297971
                          1       1   15fxz2             0.269339       0.172033
                          1       1   15fy3              0.269339       0.076936
                          1       1   15fy2z             0.269339       0.172033
                          1       1   15fyz2             0.269339       0.172033
                          1       1   15fz3              0.269339       0.076936

                          2       1    1s                0.302001       0.290347

                          3       1    8px               0.328374       0.354324
                          3       1    8py               0.328374       0.354324
                          3       1    8pz               0.328374       0.354324

                          4       1   12dx2              0.498863       0.487389
                          4       1   12dxy              0.498863       0.844183
                          4       1   12dxz              0.498863       0.844183
                          4       1   12dy2              0.498863       0.487389
                          4       1   12dyz              0.498863       0.844183
                          4       1   12dz2              0.498863       0.487389

                          5       1    9px               0.566800       0.701015
                          5       1    9py               0.566800       0.701015
                          5       1    9pz               0.566800       0.701015

                          6       1    2s                0.611132       0.492619

                          7       1   13dx2              0.764799       1.029479
                          7       1   13dxy              0.764799       1.783110
                          7       1   13dxz              0.764799       1.783110
                          7       1   13dy2              0.764799       1.029479
                          7       1   13dyz              0.764799       1.783110
                          7       1   13dz2              0.764799       1.029479

                          8       1   16fx3              0.867688       1.069726
                          8       1   16fx2y             0.867688       2.391981
                          8       1   16fx2z             0.867688       2.391981
                          8       1   16fxy2             0.867688       2.391981
                          8       1   16fxyz             0.867688       4.143033
                          8       1   16fxz2             0.867688       2.391981
                          8       1   16fy3              0.867688       1.069726
                          8       1   16fy2z             0.867688       2.391981
                          8       1   16fyz2             0.867688       2.391981
                          8       1   16fz3              0.867688       1.069726

                          9       1    3s                1.973680       1.186773

                         10       1   10px               3.976715       8.004712
                         10       1   10py               3.976715       8.004712
                         10       1   10pz               3.976715       8.004712

                         11       1    4s                7.245118       3.147344

                         12       1   14dx2              8.984523      76.740695
                         12       1   14dxy              8.984523     132.918782
                         12       1   14dxz              8.984523     132.918782
                         12       1   14dy2              8.984523      76.740695
                         12       1   14dyz              8.984523     132.918782
                         12       1   14dz2              8.984523      76.740695

                         13       1    5s               26.747990       8.382595

                         14       1   11px              77.234674     326.366431
                         14       1   11py              77.234674     326.366431
                         14       1   11pz              77.234674     326.366431

                         15       1    6s               97.467457      22.108273

                         16       1    7s              353.400833      58.091256

       Atomic covalent radius [Angstrom]:                                  1.020

       Atomic van der Waals radius [Angstrom]:                             1.800

     The atoms of this atomic kind are PAW atoms (GAPW):
       Hard Gaussian function radius:                                      1.512
       Rho0 radius:                                                        1.512
       Maximum GTO radius used for PAW projector construction:            24.566

     GAPW Soft Basis Set                                 aug-DZVP-MOLOPT-ae_soft

       Number of orbital shell sets:                                           3
       Number of orbital shells:                                              12
       Number of primitive Cartesian functions:                                7
       Number of Cartesian basis functions:                                   39
       Number of spherical basis functions:                                   34
       Norm type:                                                              2

       Normalised Cartesian orbitals:

                        Set   Shell   Orbital            Exponent    Coefficient

                          1       1    1s                0.070000       0.160238
                                                         0.132026      -0.106319
                                                         0.461903      -0.064590
                                                         2.043261       0.000000

                          1       2    2px               0.070000       0.000000
                                                         0.132026      -0.006041
                                                         0.461903       0.020884
                                                         2.043261      -1.163342
                          1       2    2py               0.070000       0.000000
                                                         0.132026      -0.006041
                                                         0.461903       0.020884
                                                         2.043261      -1.163342
                          1       2    2pz               0.070000       0.000000
                                                         0.132026      -0.006041
                                                         0.461903       0.020884
                                                         2.043261      -1.163342

                          1       3    3px               0.070000       0.000000
                                                         0.132026       0.013372
                                                         0.461903       0.460806
                                                         2.043261       0.527227
                          1       3    3py               0.070000       0.000000
                                                         0.132026       0.013372
                                                         0.461903       0.460806
                                                         2.043261       0.527227
                          1       3    3pz               0.070000       0.000000
                                                         0.132026       0.013372
                                                         0.461903       0.460806
                                                         2.043261       0.527227

                          1       4    4px               0.070000       0.000000
                                                         0.132026       0.122461
                                                         0.461903      -0.074630
                                                         2.043261      -0.266435
                          1       4    4py               0.070000       0.000000
                                                         0.132026       0.122461
                                                         0.461903      -0.074630
                                                         2.043261      -0.266435
                          1       4    4pz               0.070000       0.000000
                                                         0.132026       0.122461
                                                         0.461903      -0.074630
                                                         2.043261      -0.266435

                          1       5    5px               0.070000      -0.010761
                                                         0.132026      -0.065366
                                                         0.461903       0.662552
                                                         2.043261       0.000000
                          1       5    5py               0.070000      -0.010761
                                                         0.132026      -0.065366
                                                         0.461903       0.662552
                                                         2.043261       0.000000
                          1       5    5pz               0.070000      -0.010761
                                                         0.132026      -0.065366
                                                         0.461903       0.662552
                                                         2.043261       0.000000

                          1       6    3dx2              0.070000       0.000000
                                                         0.132026       0.010167
                                                         0.461903       0.321348
                                                         2.043261       1.422467
                          1       6    3dxy              0.070000       0.000000
                                                         0.132026       0.017609
                                                         0.461903       0.556591
                                                         2.043261       2.463785
                          1       6    3dxz              0.070000       0.000000
                                                         0.132026       0.017609
                                                         0.461903       0.556591
                                                         2.043261       2.463785
                          1       6    3dy2              0.070000       0.000000
                                                         0.132026       0.010167
                                                         0.461903       0.321348
                                                         2.043261       1.422467
                          1       6    3dyz              0.070000       0.000000
                                                         0.132026       0.017609
                                                         0.461903       0.556591
                                                         2.043261       2.463785
                          1       6    3dz2              0.070000       0.000000
                                                         0.132026       0.010167
                                                         0.461903       0.321348
                                                         2.043261       1.422467

                          1       7    4dx2              0.070000       0.004993
                                                         0.132026       0.031835
                                                         0.461903       0.041246
                                                         2.043261       0.000000
                          1       7    4dxy              0.070000       0.008648
                                                         0.132026       0.055140
                                                         0.461903       0.071440
                                                         2.043261       0.000000
                          1       7    4dxz              0.070000       0.008648
                                                         0.132026       0.055140
                                                         0.461903       0.071440
                                                         2.043261       0.000000
                          1       7    4dy2              0.070000       0.004993
                                                         0.132026       0.031835
                                                         0.461903       0.041246
                                                         2.043261       0.000000
                          1       7    4dyz              0.070000       0.008648
                                                         0.132026       0.055140
                                                         0.461903       0.071440
                                                         2.043261       0.000000
                          1       7    4dz2              0.070000       0.004993
                                                         0.132026       0.031835
                                                         0.461903       0.041246
                                                         2.043261       0.000000

                          1       8    4fx3              0.070000       0.001179
                                                         0.132026       0.004915
                                                         0.461903       0.162520
                                                         2.043261       0.000000
                          1       8    4fx2y             0.070000       0.002636
                                                         0.132026       0.010991
                                                         0.461903       0.363406
                                                         2.043261       0.000000
                          1       8    4fx2z             0.070000       0.002636
                                                         0.132026       0.010991
                                                         0.461903       0.363406
                                                         2.043261       0.000000
                          1       8    4fxy2             0.070000       0.002636
                                                         0.132026       0.010991
                                                         0.461903       0.363406
                                                         2.043261       0.000000
                          1       8    4fxyz             0.070000       0.004567
                                                         0.132026       0.019037
                                                         0.461903       0.629438
                                                         2.043261       0.000000
                          1       8    4fxz2             0.070000       0.002636
                                                         0.132026       0.010991
                                                         0.461903       0.363406
                                                         2.043261       0.000000
                          1       8    4fy3              0.070000       0.001179
                                                         0.132026       0.004915
                                                         0.461903       0.162520
                                                         2.043261       0.000000
                          1       8    4fy2z             0.070000       0.002636
                                                         0.132026       0.010991
                                                         0.461903       0.363406
                                                         2.043261       0.000000
                          1       8    4fyz2             0.070000       0.002636
                                                         0.132026       0.010991
                                                         0.461903       0.363406
                                                         2.043261       0.000000
                          1       8    4fz3              0.070000       0.001179
                                                         0.132026       0.004915
                                                         0.461903       0.162520
                                                         2.043261       0.000000

                          2       1    1s                1.864066       0.572778
                                                         0.430250      -0.034078
                                                         0.152872       0.004775

                          2       2    2s                1.864066      -0.009167
                                                         0.430250       0.282804
                                                         0.152872       0.044200

                          2       3    3s                1.864066      -0.118759
                                                         0.430250      -0.172982
                                                         0.152872       0.236834

                          3       1    1s         

     AE Potential information for                                            ALL

       Description:                                       All-electron potential
                                          Krack, Parrinello, PCCP 2, 2105 (2000)

       Gaussian exponent of the core charge distribution:               2.834467
       Electronic configuration (s p d ...):                           6  10   0

  4. Atomic kind: N                                     Number of atoms:       4

     Orbital Basis Set                                        aug-DZVP-MOLOPT-ae

       Number of orbital shell sets:                                           2
       Number of orbital shells:                                              10
       Number of primitive Cartesian functions:                               12
       Number of Cartesian basis functions:                                   35
       Number of spherical basis functions:                                   30
       Norm type:                                                              2

       Normalised Cartesian orbitals:

                        Set   Shell   Orbital            Exponent    Coefficient

                          1       1    2s                0.060000      -0.096639
                                                         0.166384       0.037538
                                                         0.634073      -0.055669
                                                         2.325354       0.000000
                                                        12.268174       0.000000

                          1       2    3px               0.060000       0.000000
                                                         0.166384      -0.031930
                                                         0.634073      -0.492962
                                                         2.325354      -1.380142
                                                        12.268174      -2.349358
                          1       2    3py               0.060000       0.000000
                                                         0.166384      -0.031930
                                                         0.634073      -0.492962
                                                         2.325354      -1.380142
                                                        12.268174      -2.349358
                          1       2    3pz               0.060000       0.000000
                                                         0.166384      -0.031930
                                                         0.634073      -0.492962
                                                         2.325354      -1.380142
                                                        12.268174      -2.349358

                          1       3    4px               0.060000       0.000000
                                                         0.166384       0.169694
                                                         0.634073      -0.220766
                                                         2.325354      -0.809234
                                                        12.268174      -0.998521
                          1       3    4py               0.060000       0.000000
                                                         0.166384       0.169694
                                                         0.634073      -0.220766
                                                         2.325354      -0.809234
                                                        12.268174      -0.998521
                          1       3    4pz               0.060000       0.000000
                                                         0.166384       0.169694
                                                         0.634073      -0.220766
                                                         2.325354      -0.809234
                                                        12.268174      -0.998521

                          1       4    5px               0.060000       0.028594
                                                         0.166384       0.063224
                                                         0.634073      -0.046183
                                                         2.325354       0.000000
                                                        12.268174       0.000000
                          1       4    5py               0.060000       0.028594
                                                         0.166384       0.063224
                                                         0.634073      -0.046183
                                                         2.325354       0.000000
                                                        12.268174       0.000000
                          1       4    5pz               0.060000       0.028594
                                                         0.166384       0.063224
                                                         0.634073      -0.046183
                                                         2.325354       0.000000
                                                        12.268174       0.000000

                          1       5    4dx2              0.060000       0.000000
                                                         0.166384       0.019402
                                                         0.634073       0.555487
                                                         2.325354       1.255926
                                                        12.268174      -0.426175
                          1       5    4dxy              0.060000       0.000000
                                                         0.166384       0.033606
                                                         0.634073       0.962132
                                                         2.325354       2.175327
                                                        12.268174      -0.738157
                          1       5    4dxz              0.060000       0.000000
                                                         0.166384       0.033606
                                                         0.634073       0.962132
                                                         2.325354       2.175327
                                                        12.268174      -0.738157
                          1       5    4dy2              0.060000       0.000000
                                                         0.166384       0.019402
                                                         0.634073       0.555487
                                                         2.325354       1.255926
                                                        12.268174      -0.426175
                          1       5    4dyz              0.060000       0.000000
                                                         0.166384       0.033606
                                                         0.634073       0.962132
                                                         2.325354       2.175327
                                                        12.268174      -0.738157
                          1       5    4dz2              0.060000       0.000000
                                                         0.166384       0.019402
                                                         0.634073       0.555487
                                                         2.325354       1.255926
                                                        12.268174      -0.426175

                          1       6    5dx2              0.060000      -0.008089
                                                         0.166384      -0.027907
                                                         0.634073      -0.057221
                                                         2.325354       0.000000
                                                        12.268174       0.000000
                          1       6    5dxy              0.060000      -0.014011
                                                         0.166384      -0.048336
                                                         0.634073      -0.099109
                                                         2.325354       0.000000
                                                        12.268174       0.000000
                          1       6    5dxz              0.060000      -0.014011
                                                         0.166384      -0.048336
                                                         0.634073      -0.099109
                                                         2.325354       0.000000
                                                        12.268174       0.000000
                          1       6    5dy2              0.060000      -0.008089
                                                         0.166384      -0.027907
                                                         0.634073      -0.057221
                                                         2.325354       0.000000
                                                        12.268174       0.000000
                          1       6    5dyz              0.060000      -0.014011
                                                         0.166384      -0.048336
                                                         0.634073      -0.099109
                                                         2.325354       0.000000
                                                        12.268174       0.000000
                          1       6    5dz2              0.060000      -0.008089
                                                         0.166384      -0.027907
                                                         0.634073      -0.057221
                                                         2.325354       0.000000
                                                        12.268174       0.000000

                          1       7    5fx3              0.060000       0.000067
                                                         0.166384       0.012645
                                                         0.634073       0.328269
                                                         2.325354       1.687172
                                                        12.268174       0.000000
                          1       7    5fx2y             0.060000       0.000150
                                                         0.166384       0.028275
                                                         0.634073       0.734031
                                                         2.325354       3.772631
                                                        12.268174       0.000000
                          1       7    5fx2z             0.060000       0.000150
                                                         0.166384       0.028275
                                                         0.634073       0.734031
                                                         2.325354       3.772631
                                                        12.268174       0.000000
                          1       7    5fxy2             0.060000       0.000150
                                                         0.166384       0.028275
                                                         0.634073       0.734031
                                                         2.325354       3.772631
                                                        12.268174       0.000000
                          1       7    5fxyz             0.060000       0.000260
                                                         0.166384       0.048973
                                                         0.634073       1.271379
                                                         2.325354       6.534389
                                                        12.268174       0.000000
                          1       7    5fxz2             0.060000       0.000150
                                                         0.166384       0.028275
                                                         0.634073       0.734031
                                                         2.325354       3.772631
                                                        12.268174       0.000000
                          1       7    5fy3              0.060000       0.000067
                                                         0.166384       0.012645
                                                         0.634073       0.328269
                                                         2.325354       1.687172
                                                        12.268174       0.000000
                          1       7    5fy2z             0.060000       0.000150
                                                         0.166384       0.028275
                                                         0.634073       0.734031
                                                         2.325354       3.772631
                                                        12.268174       0.000000
                          1       7    5fyz2             0.060000       0.000150
                                                         0.166384       0.028275
                                                         0.634073       0.734031
                                                         2.325354       3.772631
                                                        12.268174       0.000000
                          1       7    5fz3              0.060000       0.000067
                                                         0.166384       0.012645
                                                         0.634073       0.328269
                                                         2.325354       1.687172
                                                        12.268174       0.000000

                          2       1    1s                0.191012      -0.002582
                                                         0.666629       0.012902
                                                         4.403487      -0.858326
                                                        14.651380      -2.749170
                                                        57.692026      -2.958222
                                                       257.997554      -1.897300
                                                      1713.054433      -1.166486

                          2       2    2s                0.191012       0.079194
                                                         0.666629       0.351708
                                                         4.403487       0.009155
                                                        14.651380       0.000424
                                                        57.692026       0.772862
                                                       257.997554      -0.458166
                                                      1713.054433       0.520658

                          2       3    3s                0.191012       0.300064
                                                         0.666629      -0.436823
                                                         4.403487      -0.072962
                                                        14.651380      -0.095292
                                                        57.692026      -1.262420
                                                       257.997554       0.741400
                                                      1713.054433      -0.270364

     RI Auxiliary Basis Set             RI_aug-DZVP-MOLOPT-ae_N_RI_031_s_p_d_f_g

       Number of orbital shell sets:                                           9
       Number of orbital shells:                                               9
       Number of primitive Cartesian functions:                                9
       Number of Cartesian basis functions:                                   41
       Number of spherical basis functions:                                   31
       Norm type:                                                              2

       Normalised Cartesian orbitals:

                        Set   Shell   Orbital            Exponent    Coefficient

                          1       1    5px               0.588162       0.734195
                          1       1    5py               0.588162       0.734195
                          1       1    5pz               0.588162       0.734195

                          2       1    9gx4              0.588387       0.258826
                          2       1    9gx3y             0.588387       0.684790
                          2       1    9gx3z             0.588387       0.684790
                          2       1    9gx2y2            0.588387       0.884060
                          2       1    9gx2yz            0.588387       1.531236
                          2       1    9gx2z2            0.588387       0.884060
                          2       1    9gxy3             0.588387       0.684790
                          2       1    9gxy2z            0.588387       1.531236
                          2       1    9gxyz2            0.588387       1.531236
                          2       1    9gxz3             0.588387       0.684790
                          2       1    9gy4              0.588387       0.258826
                          2       1    9gy3z             0.588387       0.684790
                          2       1    9gy2z2            0.588387       0.884060
                          2       1    9gyz3             0.588387       0.684790
                          2       1    9gz4              0.588387       0.258826

                          3       1    1s                0.787747       0.595937

                          4       1    8fx3              1.052173       1.650632
                          4       1    8fx2y             1.052173       3.690925
                          4       1    8fx2z             1.052173       3.690925
                          4       1    8fxy2             1.052173       3.690925
                          4       1    8fxyz             1.052173       6.392869
                          4       1    8fxz2             1.052173       3.690925
                          4       1    8fy3              1.052173       1.650632
                          4       1    8fy2z             1.052173       3.690925
                          4       1    8fyz2             1.052173       3.690925
                          4       1    8fz3              1.052173       1.650632

                          5       1    7dx2              1.492049       3.315352
                          5       1    7dxy              1.492049       5.742358
                          5       1    7dxz              1.492049       5.742358
                          5       1    7dy2              1.492049       3.315352
                          5       1    7dyz              1.492049       5.742358
                          5       1    7dz2              1.492049       3.315352

                          6       1    6px               1.830187       3.034306
                          6       1    6py               1.830187       3.034306
                          6       1    6pz               1.830187       3.034306

                          7       1    2s                4.309668       2.131783

                          8       1    3s               21.163049       7.032241

                          9       1    4s              110.226660      24.245161

       Atomic covalent radius [Angstrom]:                                  0.750

       Atomic van der Waals radius [Angstrom]:                             1.550

     The atoms of this atomic kind are PAW atoms (GAPW):
       Hard Gaussian function radius:                                      1.512
       Rho0 radius:                                                        1.512
       Maximum GTO radius used for PAW projector construction:            24.566

     GAPW Soft Basis Set                                 aug-DZVP-MOLOPT-ae_soft

       Number of orbital shell sets:                                           2
       Number of orbital shells:                                              10
       Number of primitive Cartesian functions:                                6
       Number of Cartesian basis functions:                                   35
       Number of spherical basis functions:                                   30
       Norm type:                                                              2

       Normalised Cartesian orbitals:

                        Set   Shell   Orbital            Exponent    Coefficient

                          1       1    2s                0.060000      -0.096639
                                                         0.166384       0.037538
                                                         0.634073      -0.055669
                                                         2.325354       0.000000

                          1       2    3px               0.060000       0.000000
                                                         0.166384      -0.031930
                                                         0.634073      -0.492962
                                                         2.325354      -1.380142
                          1       2    3py               0.060000       0.000000
                                                         0.166384      -0.031930
                                                         0.634073      -0.492962
                                                         2.325354      -1.380142
                          1       2    3pz               0.060000       0.000000
                                                         0.166384      -0.031930
                                                         0.634073      -0.492962
                                                         2.325354      -1.380142

                          1       3    4px               0.060000       0.000000
                                                         0.166384       0.169694
                                                         0.634073      -0.220766
                                                         2.325354      -0.809234
                          1       3    4py               0.060000       0.000000
                                                         0.166384       0.169694
                                                         0.634073      -0.220766
                                                         2.325354      -0.809234
                          1       3    4pz               0.060000       0.000000
                                                         0.166384       0.169694
                                                         0.634073      -0.220766
                                                         2.325354      -0.809234

                          1       4    5px               0.060000       0.028594
                                                         0.166384       0.063224
                                                         0.634073      -0.046183
                                                         2.325354       0.000000
                          1       4    5py               0.060000       0.028594
                                                         0.166384       0.063224
                                                         0.634073      -0.046183
                                                         2.325354       0.000000
                          1       4    5pz               0.060000       0.028594
                                                         0.166384       0.063224
                                                         0.634073      -0.046183
                                                         2.325354       0.000000

                          1       5    4dx2              0.060000       0.000000
                                                         0.166384       0.019402
                                                         0.634073       0.555487
                                                         2.325354       1.255926
                          1       5    4dxy              0.060000       0.000000
                                                         0.166384       0.033606
                                                         0.634073       0.962132
                                                         2.325354       2.175327
                          1       5    4dxz              0.060000       0.000000
                                                         0.166384       0.033606
                                                         0.634073       0.962132
                                                         2.325354       2.175327
                          1       5    4dy2              0.060000       0.000000
                                                         0.166384       0.019402
                                                         0.634073       0.555487
                                                         2.325354       1.255926
                          1       5    4dyz              0.060000       0.000000
                                                         0.166384       0.033606
                                                         0.634073       0.962132
                                                         2.325354       2.175327
                          1       5    4dz2              0.060000       0.000000
                                                         0.166384       0.019402
                                                         0.634073       0.555487
                                                         2.325354       1.255926

                          1       6    5dx2              0.060000      -0.008089
                                                         0.166384      -0.027907
                                                         0.634073      -0.057221
                                                         2.325354       0.000000
                          1       6    5dxy              0.060000      -0.014011
                                                         0.166384      -0.048336
                                                         0.634073      -0.099109
                                                         2.325354       0.000000
                          1       6    5dxz              0.060000      -0.014011
                                                         0.166384      -0.048336
                                                         0.634073      -0.099109
                                                         2.325354       0.000000
                          1       6    5dy2              0.060000      -0.008089
                                                         0.166384      -0.027907
                                                         0.634073      -0.057221
                                                         2.325354       0.000000
                          1       6    5dyz              0.060000      -0.014011
                                                         0.166384      -0.048336
                                                         0.634073      -0.099109
                                                         2.325354       0.000000
                          1       6    5dz2              0.060000      -0.008089
                                                         0.166384      -0.027907
                                                         0.634073      -0.057221
                                                         2.325354       0.000000

                          1       7    5fx3              0.060000       0.000067
                                                         0.166384       0.012645
                                                         0.634073       0.328269
                                                         2.325354       1.687172
                          1       7    5fx2y             0.060000       0.000150
                                                         0.166384       0.028275
                                                         0.634073       0.734031
                                                         2.325354       3.772631
                          1       7    5fx2z             0.060000       0.000150
                                                         0.166384       0.028275
                                                         0.634073       0.734031
                                                         2.325354       3.772631
                          1       7    5fxy2             0.060000       0.000150
                                                         0.166384       0.028275
                                                         0.634073       0.734031
                                                         2.325354       3.772631
                          1       7    5fxyz             0.060000       0.000260
                                                         0.166384       0.048973
                                                         0.634073       1.271379
                                                         2.325354       6.534389
                          1       7    5fxz2             0.060000       0.000150
                                                         0.166384       0.028275
                                                         0.634073       0.734031
                                                         2.325354       3.772631
                          1       7    5fy3              0.060000       0.000067
                                                         0.166384       0.012645
                                                         0.634073       0.328269
                                                         2.325354       1.687172
                          1       7    5fy2z             0.060000       0.000150
                                                         0.166384       0.028275
                                                         0.634073       0.734031
                                                         2.325354       3.772631
                          1       7    5fyz2             0.060000       0.000150
                                                         0.166384       0.028275
                                                         0.634073       0.734031
                                                         2.325354       3.772631
                          1       7    5fz3              0.060000       0.000067
                                                         0.166384       0.012645
                                                         0.634073       0.328269
                                                         2.325354       1.687172

                          2       1    1s                0.191012      -0.002582
                                                         0.666629       0.012902

                          2       2    2s                0.191012       0.079194
                                                         0.666629       0.351708

                          2       3    3s                0.191012       0.300064
                                                         0.666629      -0.436823

     AE Potential information for                                            ALL

       Description:                                       All-electron potential
                                          Krack, Parrinello, PCCP 2, 2105 (2000)

       Gaussian exponent of the core charge distribution:               5.979100
       Electronic configuration (s p d ...):                           4   3   0


 MOLECULE KIND INFORMATION


 All atoms are their own molecule, skipping detailed information


 TOTAL NUMBERS AND MAXIMUM NUMBERS

  Total number of            - Atomic kinds:                                   4
                             - Atoms:                                         16
                             - Shell sets:                                    28
                             - Shells:                                       134
                             - Primitive Cartesian functions:                166
                             - Cartesian basis functions:                    412
                             - Spherical basis functions:                    362

  Maximum angular momentum of the orbital basis functions:                     3


 MODULE QUICKSTEP: ATOMIC COORDINATES IN ANGSTROM

   Atom Kind Element         X             Y             Z       Z(eff)     Mass
      1    1 C     6     12.614683     14.404319     12.245333   6.0000  12.0107
      2    2 H     1     12.244594     13.839795     11.381971   1.0000   1.0079
      3    2 H     1     13.208168     15.258118     11.903035   1.0000   1.0079
      4    2 H     1     11.773840     14.754763     12.851753   1.0000   1.0079
      5    3 S    16     13.635673     13.227994     13.169630  16.0000  32.0650
      6    4 N     7     14.971586     13.589663     15.397300   7.0000  14.0067
      7    4 N     7     13.814764     15.515685     14.592597   7.0000  14.0067
      8    1 C     6     14.211977     14.227567     14.477708   6.0000  12.0107
      9    3 S    16     16.432732     16.772006     17.109260  16.0000  32.0650
     10    4 N     7     15.611766     14.339628     16.272232   7.0000  14.0067
     11    4 N     7     14.443612     16.263070     15.477806   7.0000  14.0067
     12    1 C     6     15.439988     15.678426     16.181427   6.0000  12.0107
     13    1 C     6     17.546645     15.616814     17.948957   6.0000  12.0107
     14    2 H     1     18.226160     16.250903     18.529654   1.0000   1.0079
     15    2 H     1     18.118375     15.024732     17.227191   1.0000   1.0079
     16    2 H     1     16.991041     14.952565     18.618029   1.0000   1.0079



 SCF PARAMETERS         Density guess:                                    ATOMIC
                        --------------------------------------------------------
                        max_scf:                                             500
                        max_scf_history:                                       0
                        max_diis:                                              4
                        --------------------------------------------------------
                        eps_scf:                                        1.00E-06
                        eps_scf_history:                                0.00E+00
                        eps_diis:                                       1.00E-01
                        eps_eigval:                                     1.00E-05
                        --------------------------------------------------------
                        level_shift [a.u.]:                             0.000000
                        added MOs                                       317    0
                        --------------------------------------------------------
                        Mixing method:                            BROYDEN_MIXING
                                                charge density mixing in g-space
                        --------------------------------------------------------
                        No outer SCF

 PW_GRID| Information for grid number                                          1
 PW_GRID| Grid distributed over                                   192 processors
 PW_GRID| Real space group dimensions                                   192    1
 PW_GRID| the grid is blocked:                                                NO
 PW_GRID| Cutoff [a.u.]                                                    250.0
 PW_GRID| spherical cutoff:                                                   NO
 PW_GRID|   Bounds   1           -202     202                Points:         405
 PW_GRID|   Bounds   2           -202     202                Points:         405
 PW_GRID|   Bounds   3           -202     202                Points:         405
 PW_GRID| Volume element (a.u.^3)  0.2743E-02     Volume (a.u.^3)    182205.0337
 PW_GRID| Grid span                                                    FULLSPACE
 PW_GRID|   Distribution                         Average         Max         Min
 PW_GRID|   G-Vectors                           345990.2      346275      345870
 PW_GRID|   G-Rays                                 854.3         855         854
 PW_GRID|   Real Space Points                   345990.2      492075      328050

 PW_GRID| Information for grid number                                          2
 PW_GRID| Number of the reference grid                                         1
 PW_GRID| Grid distributed over                                   192 processors
 PW_GRID| Real space group dimensions                                   192    1
 PW_GRID| the grid is blocked:                                                NO
 PW_GRID| Cutoff [a.u.]                                                     83.3
 PW_GRID| spherical cutoff:                                                   NO
 PW_GRID|   Bounds   1           -120     119                Points:         240
 PW_GRID|   Bounds   2           -120     119                Points:         240
 PW_GRID|   Bounds   3           -120     119                Points:         240
 PW_GRID| Volume element (a.u.^3)  0.1318E-01     Volume (a.u.^3)    182205.0337
 PW_GRID| Grid span                                                    FULLSPACE
 PW_GRID|   Distribution                         Average         Max         Min
 PW_GRID|   G-Vectors                            72000.0       72240       71760
 PW_GRID|   G-Rays                                 300.0         301         299
 PW_GRID|   Real Space Points                    72000.0      115200       57600

 PW_GRID| Information for grid number                                          3
 PW_GRID| Number of the reference grid                                         1
 PW_GRID| Grid distributed over                                   192 processors
 PW_GRID| Real space group dimensions                                    12   16
 PW_GRID| the grid is blocked:                                                NO
 PW_GRID| Cutoff [a.u.]                                                     27.8
 PW_GRID| spherical cutoff:                                                   NO
 PW_GRID|   Bounds   1            -67      67                Points:         135
 PW_GRID|   Bounds   2            -67      67                Points:         135
 PW_GRID|   Bounds   3            -67      67                Points:         135
 PW_GRID| Volume element (a.u.^3)  0.7406E-01     Volume (a.u.^3)    182205.0337
 PW_GRID| Grid span                                                    FULLSPACE
 PW_GRID|   Distribution                         Average         Max         Min
 PW_GRID|   G-Vectors                            12814.5       12960       12690
 PW_GRID|   G-Rays                                  94.9          96          94
 PW_GRID|   Real Space Points                    12814.5       14580       11880

 PW_GRID| Information for grid number                                          4
 PW_GRID| Number of the reference grid                                         1
 PW_GRID| Grid distributed over                                   192 processors
 PW_GRID| Real space group dimensions                                    12   16
 PW_GRID| the grid is blocked:                                                NO
 PW_GRID| Cutoff [a.u.]                                                      9.3
 PW_GRID| spherical cutoff:                                                   NO
 PW_GRID|   Bounds   1            -40      39                Points:          80
 PW_GRID|   Bounds   2            -40      39                Points:          80
 PW_GRID|   Bounds   3            -40      39                Points:          80
 PW_GRID| Volume element (a.u.^3)  0.3559         Volume (a.u.^3)    182205.0337
 PW_GRID| Grid span                                                    FULLSPACE
 PW_GRID|   Distribution                         Average         Max         Min
 PW_GRID|   G-Vectors                             2666.7        2800        2560
 PW_GRID|   G-Rays                                  33.3          35          32
 PW_GRID|   Real Space Points                     2666.7        2800        2400

 POISSON| Solver                                                         WAVELET
 POISSON| Wavelet| Scaling function                                           40
 POISSON| Periodicity                                                       NONE

 RS_GRID| Information for grid number                                          1
 RS_GRID|   Bounds   1           -202     202                Points:         405
 RS_GRID|   Bounds   2           -202     202                Points:         405
 RS_GRID|   Bounds   3           -202     202                Points:         405
 RS_GRID| Real space distribution over                                  4 groups
 RS_GRID| Real space distribution along direction                              1
 RS_GRID| Border size                                                         35
 RS_GRID| Real space distribution over                                  6 groups
 RS_GRID| Real space distribution along direction                              2
 RS_GRID| Border size                                                         35
 RS_GRID| Real space distribution over                                  8 groups
 RS_GRID| Real space distribution along direction                              3
 RS_GRID| Border size                                                         35
 RS_GRID|   Distribution                         Average         Max         Min
 RS_GRID|   Planes                                 171.2         172         171
 RS_GRID|   Distribution                         Average         Max         Min
 RS_GRID|   Planes                                 137.5         138         137
 RS_GRID|   Distribution                         Average         Max         Min
 RS_GRID|   Planes                                 120.6         121         120

 RS_GRID| Information for grid number                                          2
 RS_GRID|   Bounds   1           -120     119                Points:         240
 RS_GRID|   Bounds   2           -120     119                Points:         240
 RS_GRID|   Bounds   3           -120     119                Points:         240
 RS_GRID| Real space distribution over                                  4 groups
 RS_GRID| Real space distribution along direction                              1
 RS_GRID| Border size                                                         39
 RS_GRID| Real space distribution over                                  6 groups
 RS_GRID| Real space distribution along direction                              2
 RS_GRID| Border size                                                         39
 RS_GRID| Real space distribution over                                  8 groups
 RS_GRID| Real space distribution along direction                              3
 RS_GRID| Border size                                                         39
 RS_GRID|   Distribution                         Average         Max         Min
 RS_GRID|   Planes                                 138.0         138         138
 RS_GRID|   Distribution                         Average         Max         Min
 RS_GRID|   Planes                                 118.0         118         118
 RS_GRID|   Distribution                         Average         Max         Min
 RS_GRID|   Planes                                 108.0         108         108

 RS_GRID| Information for grid number                                          3
 RS_GRID|   Bounds   1            -67      67                Points:         135
 RS_GRID|   Bounds   2            -67      67                Points:         135
 RS_GRID|   Bounds   3            -67      67                Points:         135
 RS_GRID| Real space fully replicated
 RS_GRID| Group size                                                           1

 RS_GRID| Information for grid number                                          4
 RS_GRID|   Bounds   1            -40      39                Points:          80
 RS_GRID|   Bounds   2            -40      39                Points:          80
 RS_GRID|   Bounds   3            -40      39                Points:          80
 RS_GRID| Real space fully replicated
 RS_GRID| Group size                                                           1

  HFX_INFO| Replica ID:                                                        1
  HFX_INFO| FRACTION:                                               0.2500000000
  HFX_INFO| Interaction Potential:                                       COULOMB
  HFX_INFO| EPS_SCHWARZ:                                                 1.0E-10
  HFX_INFO| EPS_SCHWARZ_FORCES                                           1.0E-08
  HFX_INFO| EPS_STORAGE_SCALING:                                         1.0E+00
  HFX_INFO| NBINS:                                                            64
  HFX_INFO| BLOCK_SIZE:                                                        1
  HFX_INFO| Number of periodic shells considered:                           NONE
  HFX_INFO| Number of periodic cells considered:                            NONE


 OVERLAP MATRIX CONDITION NUMBER
 1-Norm Condition Number (Estimate)
   CN : |A|*|A^-1|:  3.156E+001 *  5.345E+004   = 1.687E+006  Log(1-CN):  6.2271
 1-Norm and 2-Norm Condition Numbers using Diagonalization
   CN : |A|*|A^-1|:  3.156E+001 *  5.771E+004   = 1.822E+006  Log(1-CN):  6.2605
   CN : max/min ev:  1.145E+001 /  4.627E-005   = 2.474E+005  Log(2-CN):  5.3934

 Extrapolation method: initial_guess

 Atomic guess: The first density matrix is obtained in terms of atomic orbitals
               and electronic configurations assigned to each atomic kind

 Guess for atomic kind: C

 Electronic structure
    Total number of core electrons                                          0.00
    Total number of valence electrons                                       6.00
    Total number of electrons                                               6.00
    Multiplicity                                                   not specified
    S      2.00  2.00
    P      2.00


 *******************************************************************************
                  Iteration          Convergence                     Energy [au]
 *******************************************************************************
                          1        0.133902                     -37.363061759844
                          2        0.102325                     -37.368472442707
                          3        0.860737E-03                 -37.376215693871
                          4        0.849047E-04                 -37.376216293501
                          5        0.219397E-06                 -37.376216298714

 Energy components [Hartree]           Total Energy ::          -37.376216298714
                                        Band Energy ::          -21.245708131867
                                     Kinetic Energy ::           37.464666877769
                                   Potential Energy ::          -74.840883176484
                                      Virial (-V/T) ::            1.997639093407
                                        Core Energy ::          -50.271057779086
                                          XC Energy ::           -4.736056292831
                                     Coulomb Energy ::           17.630897773203

 Orbital energies  State     L     Occupation   Energy[a.u.]          Energy[eV]

                       1     0          2.000      -9.941022         -270.508975
                       2     0          2.000      -0.490185          -13.338601

                       1     1          2.000      -0.191647           -5.214984


 Total Electron Density at R=0:                                       116.283880

 Guess for atomic kind: H

 Electronic structure
    Total number of core electrons                                          0.00
    Total number of valence electrons                                       1.00
    Total number of electrons                                               1.00
    Multiplicity                                                   not specified
    S      1.00


 *******************************************************************************
                  Iteration          Convergence                     Energy [au]
 *******************************************************************************
                          1        0.100530E-01                  -0.443985550189
                          2        0.945329E-03                  -0.444090029920
                          3        0.103025E-03                  -0.444092117382
                          4        0.802727E-07                  -0.444092129626

 Energy components [Hartree]           Total Energy ::           -0.444092129626
                                        Band Energy ::           -0.233486998571
                                     Kinetic Energy ::            0.420413643923
                                   Potential Energy ::           -0.864505773549
                                      Virial (-V/T) ::            2.056321877382
                                        Core Energy ::           -0.493965249450
                                          XC Energy ::           -0.230662915809
                                     Coulomb Energy ::            0.280536035634

 Orbital energies  State     L     Occupation   Energy[a.u.]          Energy[eV]

                       1     0          1.000      -0.233487           -6.353504


 Total Electron Density at R=0:                                         0.246678

 Guess for atomic kind: S

 Electronic structure
    Total number of core electrons                                          0.00
    Total number of valence electrons                                      16.00
    Total number of electrons                                              16.00
    Multiplicity                                                   not specified
    S      2.00  2.00  2.00
    P      6.00  4.00


 *******************************************************************************
                  Iteration          Convergence                     Energy [au]
 *******************************************************************************
                          1        0.508992                    -396.532503655990
                          2        0.158529                    -396.545404359598
                          3        0.440887E-01                -396.549661500960
                          4        0.692753E-03                -396.550151447682
                          5        0.988290E-05                -396.550151571718
                          6        0.574825E-08                -396.550151571747

 Energy components [Hartree]           Total Energy ::         -396.550151571747
                                        Band Energy ::         -227.617519441937
                                     Kinetic Energy ::          396.442273376157
                                   Potential Energy ::         -792.992424947904
                                      Virial (-V/T) ::            2.000272115773
                                        Core Energy ::         -549.094947582507
                                          XC Energy ::          -24.160563523673
                                     Coulomb Energy ::          176.705359534434

 Orbital energies  State     L     Occupation   Energy[a.u.]          Energy[eV]

                       1     0          2.000     -87.724168        -2387.096014
                       2     0          2.000      -7.695851         -209.414757
                       3     0          2.000      -0.626682          -17.052872

                       1     1          6.000      -5.751215         -156.498516
                       2     1          4.000      -0.254207           -6.917329


 Total Electron Density at R=0:                                      2398.079628

 Guess for atomic kind: N

 Electronic structure
    Total number of core electrons                                          0.00
    Total number of valence electrons                                       7.00
    Total number of electrons                                               7.00
    Multiplicity                                                   not specified
    S      2.00  2.00
    P      3.00


 *******************************************************************************
                  Iteration          Convergence                     Energy [au]
 *******************************************************************************
                          1        0.369390                     -53.855844969821
                          2        0.273078                     -53.870170065147
                          3        0.611788E-02                 -53.916370559561
                          4        0.258022E-03                 -53.916388709621
                          5        0.100264E-04                 -53.916388753242
                          6        0.664221E-07                 -53.916388753301

 Energy components [Hartree]           Total Energy ::          -53.916388753301
                                        Band Energy ::          -30.277671893433
                                     Kinetic Energy ::           53.943449639882
                                   Potential Energy ::         -107.859838393183
                                      Virial (-V/T) ::            1.999498347125
                                        Core Energy ::          -73.381511064535
                                          XC Energy ::           -6.114835262346
                                     Coulomb Energy ::           25.579957573581

 Orbital energies  State     L     Occupation   Energy[a.u.]          Energy[eV]

                       1     0          2.000     -14.050793         -382.341534
                       2     0          2.000      -0.664480          -18.081407

                       1     1          3.000      -0.282375           -7.683823


 Total Electron Density at R=0:                                       189.469012
 Re-scaling the density matrix to get the right number of electrons
                  # Electrons              Trace(P)               Scaling factor
                           90                90.000                        1.000

 Number of electrons:                                                         90
 Number of occupied orbitals:                                                 45
 Number of molecular orbitals:                                               362

 Number of orbital functions:                                                362
 Number of independent orbital functions:                                    362


 SCF WAVEFUNCTION OPTIMIZATION

  Step     Update method      Time    Convergence         Total energy    Change
  ------------------------------------------------------------------------------

  HFX_MEM_INFO| Est. max. program size before HFX [MiB]:                     773
  HFX_MEM_INFO| Number of cart. primitive ERI's calculated:         302977757260
  HFX_MEM_INFO| Number of sph. ERI's calculated:                      2513821947
  HFX_MEM_INFO| Number of sph. ERI's stored in-core:                  2513821947
  HFX_MEM_INFO| Number of sph. ERI's stored on disk:                           0
  HFX_MEM_INFO| Number of sph. ERI's calculated on the fly:                    0
  HFX_MEM_INFO| Total memory consumption ERI's RAM [MiB]:                   8645
  HFX_MEM_INFO| Whereof max-vals [MiB]:                                        6
  HFX_MEM_INFO| Total compression factor ERI's RAM:                         2.22
  HFX_MEM_INFO| Total memory consumption ERI's disk [MiB]:                     0
  HFX_MEM_INFO| Total compression factor ERI's disk:                        0.00
  HFX_MEM_INFO| Size of density/Fock matrix [MiB]:                             0
  HFX_MEM_INFO| Size of buffers [MiB]:                                        24
  HFX_MEM_INFO| Est. max. program size after HFX  [MiB]:                    1347

     1 NoMix/Diag. 0.10E+00   31.2     9.41618837     -1172.4864224996 -1.17E+03
     2 Broy./Diag. 0.10E+00    1.1     0.28436732     -1165.2613160132  7.23E+00
     3 Broy./Diag. 0.10E+00    0.9     0.32477122     -1163.9062389163  1.36E+00
     4 Broy./Diag. 0.10E+00    0.9     1.56379416     -1166.1964882326 -2.29E+00
     5 Broy./Diag. 0.10E+00    0.9     0.06175323     -1169.1079329331 -2.91E+00
     6 Broy./Diag. 0.10E+00    0.9     0.01448536     -1169.4582733624 -3.50E-01
     7 Broy./Diag. 0.10E+00    0.9     0.21853563     -1169.1507581157  3.08E-01
     8 Broy./Diag. 0.10E+00    0.9     0.15372163     -1169.3464477099 -1.96E-01
     9 Broy./Diag. 0.10E+00    0.9     0.03764511     -1169.6679827049 -3.22E-01
    10 Broy./Diag. 0.10E+00    0.9     0.06527110     -1169.7315721726 -6.36E-02
    11 Broy./Diag. 0.10E+00    0.9     0.01286329     -1169.7648556201 -3.33E-02
    12 Broy./Diag. 0.10E+00    0.8     0.00220293     -1169.7972786529 -3.24E-02
    13 Broy./Diag. 0.10E+00    0.8     0.01319390     -1169.8810556935 -8.38E-02
    14 Broy./Diag. 0.10E+00    0.8     0.00783175     -1170.0160831984 -1.35E-01
    15 Broy./Diag. 0.10E+00    0.8     0.00252665     -1170.0763077452 -6.02E-02
    16 Broy./Diag. 0.10E+00    0.9     0.00822766     -1170.0749101808  1.40E-03
    17 Broy./Diag. 0.10E+00    0.8     0.00394023     -1170.0956835399 -2.08E-02
    18 Broy./Diag. 0.10E+00    0.8     0.01053764     -1170.1062636906 -1.06E-02
    19 Broy./Diag. 0.10E+00    0.8     0.00979049     -1170.0859791928  2.03E-02
    20 Broy./Diag. 0.10E+00    0.9     0.00527140     -1170.0778851634  8.09E-03
    21 Broy./Diag. 0.10E+00    0.9     0.00130343     -1170.0796989529 -1.81E-03
    22 Broy./Diag. 0.10E+00    0.9     0.00570206     -1170.0815752038 -1.88E-03
    23 Broy./Diag. 0.10E+00    0.8     0.00357904     -1170.0826959329 -1.12E-03
    24 Broy./Diag. 0.10E+00    0.9     0.00125935     -1170.0837901539 -1.09E-03
    25 Broy./Diag. 0.10E+00    0.8     0.00166664     -1170.0919751110 -8.18E-03
    26 Broy./Diag. 0.10E+00    0.8     0.00481889     -1170.1011820873 -9.21E-03
    27 Broy./Diag. 0.10E+00    0.8     0.00127231     -1170.1062696753 -5.09E-03
    28 Broy./Diag. 0.10E+00    0.9     0.00124454     -1170.1025389716  3.73E-03
    29 Broy./Diag. 0.10E+00    0.9     0.00158488     -1170.1002339507  2.31E-03
    30 Broy./Diag. 0.10E+00    0.8     0.00123539     -1170.0989705020  1.26E-03
    31 Broy./Diag. 0.10E+00    0.9     0.00148573     -1170.0973717294  1.60E-03
    32 Broy./Diag. 0.10E+00    0.8     0.00253657     -1170.0975821402 -2.10E-04
    33 Broy./Diag. 0.10E+00    0.8     0.00116092     -1170.0982551386 -6.73E-04
    34 Broy./Diag. 0.10E+00    0.9     0.00032982     -1170.0973615119  8.94E-04
    35 Broy./Diag. 0.10E+00    0.9     0.00103420     -1170.0969065708  4.55E-04
    36 Broy./Diag. 0.10E+00    0.8     0.00150149     -1170.0960197451  8.87E-04
    37 Broy./Diag. 0.10E+00    0.8     0.00054744     -1170.0950018248  1.02E-03
    38 Broy./Diag. 0.10E+00    0.8     0.00037908     -1170.0948345849  1.67E-04
    39 Broy./Diag. 0.10E+00    0.8     0.00033451     -1170.0950297787 -1.95E-04
    40 Broy./Diag. 0.10E+00    0.9     0.00034877     -1170.0951094875 -7.97E-05
    41 Broy./Diag. 0.10E+00    0.8     0.00019712     -1170.0949258868  1.84E-04
    42 Broy./Diag. 0.10E+00    0.9     0.00025704     -1170.0949604789 -3.46E-05
    43 Broy./Diag. 0.10E+00    0.8     0.00021114     -1170.0952491574 -2.89E-04
    44 Broy./Diag. 0.10E+00    0.9     0.00022187     -1170.0951603891  8.88E-05
    45 Broy./Diag. 0.10E+00    0.9     0.00007468     -1170.0950145345  1.46E-04
    46 Broy./Diag. 0.10E+00    0.8     0.00029658     -1170.0951024328 -8.79E-05
    47 Broy./Diag. 0.10E+00    0.9     0.00020625     -1170.0951290615 -2.66E-05
    48 Broy./Diag. 0.10E+00    0.9     0.00002093     -1170.0952580873 -1.29E-04
    49 Broy./Diag. 0.10E+00    0.8     0.00012376     -1170.0953938775 -1.36E-04
    50 Broy./Diag. 0.10E+00    0.8     0.00011198     -1170.0954200700 -2.62E-05
    51 Broy./Diag. 0.10E+00    0.8     0.00004533     -1170.0954128859  7.18E-06
    52 Broy./Diag. 0.10E+00    0.8     0.00004936     -1170.0953999934  1.29E-05
    53 Broy./Diag. 0.10E+00    0.8     0.00004920     -1170.0954504411 -5.04E-05
    54 Broy./Diag. 0.10E+00    0.9     0.00005744     -1170.0954390416  1.14E-05
    55 Broy./Diag. 0.10E+00    0.8     0.00000944     -1170.0954117463  2.73E-05
    56 Broy./Diag. 0.10E+00    0.9     0.00003601     -1170.0954423769 -3.06E-05
    57 Broy./Diag. 0.10E+00    0.8     0.00003769     -1170.0954249340  1.74E-05
    58 Broy./Diag. 0.10E+00    0.9     0.00000917     -1170.0954012270  2.37E-05
    59 Broy./Diag. 0.10E+00    0.8     0.00001793     -1170.0954080802 -6.85E-06
    60 Broy./Diag. 0.10E+00    0.8     0.00001142     -1170.0953991228  8.96E-06
    61 Broy./Diag. 0.10E+00    0.8     0.00000567     -1170.0953798926  1.92E-05
    62 Broy./Diag. 0.10E+00    0.8     0.00000923     -1170.0953813356 -1.44E-06
    63 Broy./Diag. 0.10E+00    0.8     0.00000716     -1170.0953868904 -5.55E-06
    64 Broy./Diag. 0.10E+00    0.9     0.00000233     -1170.0953859074  9.83E-07
    65 Broy./Diag. 0.10E+00    0.9     0.00000744     -1170.0953849099  9.98E-07
    66 Broy./Diag. 0.10E+00    0.9     0.00000179     -1170.0953779867  6.92E-06
    67 Broy./Diag. 0.10E+00    0.9     0.00000122     -1170.0953717648  6.22E-06
    68 Broy./Diag. 0.10E+00    0.9     0.00000594     -1170.0953686504  3.11E-06
    69 Broy./Diag. 0.10E+00    0.8     0.00000339     -1170.0953631384  5.51E-06
    70 Broy./Diag. 0.10E+00    0.9     0.00000044     -1170.0953600314  3.11E-06

  *** SCF run converged in    70 steps ***


  Electronic density on regular grids:        -57.8308152214       32.1691847786
  Core density on regular grids:               90.0000000000       -0.0000000000
  Hard and soft densities (Lebedev):         -458.3361871446     -426.1670022143
  Total Rho_soft + Rho1_hard - Rho1_soft      -90.0000001517
  Total charge density (r-space):              -0.0000001517
  Total Rho_soft + Rho0_soft (g-space):         0.0000004334

  Overlap energy of the core charge distribution:               0.00000589091965
  Self energy of the core charge distribution:               -659.99912145983967
  Core Hamiltonian energy:                                   -512.66772574085428
  Hartree energy:                                             195.04306823139319
  Exchange-correlation energy:                                -20.23386943020292
  Hartree-Fock Exchange energy:                               -24.75700554309336

  GAPW| Exc from hard and soft atomic rho1:                   -57.05874375627859
  GAPW| local Eh = 1 center integrals:                        -90.42196822342247

  Total energy:                                             -1170.09536003137850

 !-----------------------------------------------------------------------------!
                     Mulliken Population Analysis

 #  Atom  Element  Kind  Atomic population                           Net charge
       1     C        1          6.194365                             -0.194365
       2     H        2          0.859178                              0.140822
       3     H        2          0.832172                              0.167828
       4     H        2          0.826649                              0.173351
       5     S        3         16.164254                             -0.164254
       6     N        4          7.524031                             -0.524031
       7     N        4          7.584884                             -0.584884
       8     C        1          5.014484                              0.985516
       9     S        3         16.164238                             -0.164238
      10     N        4          7.585022                             -0.585022
      11     N        4          7.523874                             -0.523874
      12     C        1          5.014467                              0.985533
      13     C        1          6.194384                             -0.194384
      14     H        2          0.859171                              0.140829
      15     H        2          0.832047                              0.167953
      16     H        2          0.826780                              0.173220
 # Total charge                             90.000000                 -0.000000

 !-----------------------------------------------------------------------------!

 !-----------------------------------------------------------------------------!
                           Hirshfeld Charges

  #Atom  Element  Kind  Ref Charge     Population                    Net charge
      1       C      1       6.000          6.954                        -0.954
      2       H      2       1.000          0.503                         0.497
      3       H      2       1.000          0.502                         0.498
      4       H      2       1.000          0.502                         0.498
      5       S      3      16.000         16.728                        -0.728
      6       N      4       7.000          7.121                        -0.121
      7       N      4       7.000          7.159                        -0.159
      8       C      1       6.000          5.526                         0.474
      9       S      3      16.000         16.728                        -0.728
     10       N      4       7.000          7.159                        -0.159
     11       N      4       7.000          7.121                        -0.121
     12       C      1       6.000          5.526                         0.474
     13       C      1       6.000          6.954                        -0.954
     14       H      2       1.000          0.503                         0.497
     15       H      2       1.000          0.502                         0.498
     16       H      2       1.000          0.502                         0.498

  Total Charge                                                            0.012
 !-----------------------------------------------------------------------------!
  
 -------------------------------------------------------------------------------
 -                                                                             -
 -                          BANDSTRUCTURE CALCULATION                          -
 -                                                                             -
 -------------------------------------------------------------------------------
  
 Number of occupied molecular orbitals (MOs) = Number of occupied bands       45
 Number of unoccupied (= virtual) MOs = Number of unoccupied bands           317
 Number of Gaussian basis functions for MOs                                  362
 K-point mesh for the density of states (DOS) and the self-energy      1   1   1
  
 -------------------------------------------------------------------------------
 -                                                                             -
 -                                GW CALCULATION                               -
 -                                                                             -
 -------------------------------------------------------------------------------
  
 Input: Number of time/freq. points                                           30
 Input: ω_max for fitting Σ(iω) (eV)                                        10.0
 Input: Filter threshold for sparse tensor operations                    1.0E-11
 Input: Apply Hedin shift                                                      F
  
 Number of auxiliary Gaussian basis functions for χ, ε, W                    322
 Cutoff radius for the truncated Coulomb operator in Σ^x:               2645.9 Å
 Cutoff radius for the truncated Coulomb operator in RI metric:            3.0 Å
 Regularization parameter of RI                                          1.0E-02
 Regularization parameter of minimax grids                               1.0E-06
 Lattice sum size for V(k):                                                    3
  
 K-point mesh 1 for χ, ε, W                                            1   1   1
 K-point mesh 2 for χ, ε, W (for k-point extrapolation of W)           1   1   1
 Approximate the k-point extrapolation                                         F
 Group size for tensor operations                                            192
 
 Computed 3-center integrals (µν|P), execution time                        0.2 s
 Percentage of non-zero (µν|P)                                         100.000 %
 Max. distance between µ,ν in non-zero (µν|P)                              9.6 A
 Required memory if storing all 3-center integrals (µν|P)                   0 GB
 
 Number of i and j atoms in M_λνP(τ), N_νλQ(τ):                              185
 Number of inner loop atoms for µ in M_λνP = sum_µ (µν|P) G_µλ                16
 
 SCF direct band gap (eV)                                                   3.72
 Max. SCF eigval diff. (eV)                                             55232.59
 E-Range for minimax grid                                               14867.12
 Number of Padé parameters for analytic continuation:                          6
 
 Computed χ(iτ,k=0) for time point            1 / 30,    Execution time    0.2 s
 Computed χ(iτ,k=0) for time point            2 / 30,    Execution time    0.2 s
 Computed χ(iτ,k=0) for time point            3 / 30,    Execution time    0.1 s
 Computed χ(iτ,k=0) for time point            4 / 30,    Execution time    0.1 s
 Computed χ(iτ,k=0) for time point            5 / 30,    Execution time    0.1 s
 Computed χ(iτ,k=0) for time point            6 / 30,    Execution time    0.2 s
 Computed χ(iτ,k=0) for time point            7 / 30,    Execution time    0.1 s
 Computed χ(iτ,k=0) for time point            8 / 30,    Execution time    0.1 s
 Computed χ(iτ,k=0) for time point            9 / 30,    Execution time    0.1 s
 Computed χ(iτ,k=0) for time point           10 / 30,    Execution time    0.1 s
 Computed χ(iτ,k=0) for time point           11 / 30,    Execution time    0.1 s
 Computed χ(iτ,k=0) for time point           12 / 30,    Execution time    0.1 s
 Computed χ(iτ,k=0) for time point           13 / 30,    Execution time    0.1 s
 Computed χ(iτ,k=0) for time point           14 / 30,    Execution time    0.1 s
 Computed χ(iτ,k=0) for time point           15 / 30,    Execution time    0.1 s
 Computed χ(iτ,k=0) for time point           16 / 30,    Execution time    0.1 s
 Computed χ(iτ,k=0) for time point           17 / 30,    Execution time    0.1 s
 Computed χ(iτ,k=0) for time point           18 / 30,    Execution time    0.1 s
 Computed χ(iτ,k=0) for time point           19 / 30,    Execution time    0.1 s
 Computed χ(iτ,k=0) for time point           20 / 30,    Execution time    0.1 s
 Computed χ(iτ,k=0) for time point           21 / 30,    Execution time    0.2 s
 Computed χ(iτ,k=0) for time point           22 / 30,    Execution time    0.1 s
 Computed χ(iτ,k=0) for time point           23 / 30,    Execution time    0.1 s
 Computed χ(iτ,k=0) for time point           24 / 30,    Execution time    0.1 s
 Computed χ(iτ,k=0) for time point           25 / 30,    Execution time    0.2 s
 Computed χ(iτ,k=0) for time point           26 / 30,    Execution time    0.1 s
 Computed χ(iτ,k=0) for time point           27 / 30,    Execution time    0.1 s
 Computed χ(iτ,k=0) for time point           28 / 30,    Execution time    0.2 s
 Computed χ(iτ,k=0) for time point           29 / 30,    Execution time    0.1 s
 Computed χ(iτ,k=0) for time point           30 / 30,    Execution time    0.1 s
 
 Computed W(iτ,k) for k-point batch           1 /  1,    Execution time    1.7 s
 
 Computed Σ^x(k=0),                                      Execution time    0.3 s
 
 Computed Σ^c(iτ,k=0) for time point          1 / 30,    Execution time    0.3 s
 Computed Σ^c(iτ,k=0) for time point          2 / 30,    Execution time    0.2 s
 Computed Σ^c(iτ,k=0) for time point          3 / 30,    Execution time    0.2 s
 Computed Σ^c(iτ,k=0) for time point          4 / 30,    Execution time    0.2 s
 Computed Σ^c(iτ,k=0) for time point          5 / 30,    Execution time    0.4 s
 Computed Σ^c(iτ,k=0) for time point          6 / 30,    Execution time    0.2 s
 Computed Σ^c(iτ,k=0) for time point          7 / 30,    Execution time    0.2 s
 Computed Σ^c(iτ,k=0) for time point          8 / 30,    Execution time    0.2 s
 Computed Σ^c(iτ,k=0) for time point          9 / 30,    Execution time    0.3 s
 Computed Σ^c(iτ,k=0) for time point         10 / 30,    Execution time    0.2 s
 Computed Σ^c(iτ,k=0) for time point         11 / 30,    Execution time    0.2 s
 Computed Σ^c(iτ,k=0) for time point         12 / 30,    Execution time    0.2 s
 Computed Σ^c(iτ,k=0) for time point         13 / 30,    Execution time    0.2 s
 Computed Σ^c(iτ,k=0) for time point         14 / 30,    Execution time    0.2 s
 Computed Σ^c(iτ,k=0) for time point         15 / 30,    Execution time    0.2 s
 Computed Σ^c(iτ,k=0) for time point         16 / 30,    Execution time    0.2 s
 Computed Σ^c(iτ,k=0) for time point         17 / 30,    Execution time    0.2 s
 Computed Σ^c(iτ,k=0) for time point         18 / 30,    Execution time    0.2 s
 Computed Σ^c(iτ,k=0) for time point         19 / 30,    Execution time    0.2 s
 Computed Σ^c(iτ,k=0) for time point         20 / 30,    Execution time    0.2 s
 Computed Σ^c(iτ,k=0) for time point         21 / 30,    Execution time    0.2 s
 Computed Σ^c(iτ,k=0) for time point         22 / 30,    Execution time    0.2 s
 Computed Σ^c(iτ,k=0) for time point         23 / 30,    Execution time    0.2 s
 Computed Σ^c(iτ,k=0) for time point         24 / 30,    Execution time    0.2 s
 Computed Σ^c(iτ,k=0) for time point         25 / 30,    Execution time    0.2 s
 Computed Σ^c(iτ,k=0) for time point         26 / 30,    Execution time    0.2 s
 Computed Σ^c(iτ,k=0) for time point         27 / 30,    Execution time    0.2 s
 Computed Σ^c(iτ,k=0) for time point         28 / 30,    Execution time    0.2 s
 Computed Σ^c(iτ,k=0) for time point         29 / 30,    Execution time    0.2 s
 Computed Σ^c(iτ,k=0) for time point         30 / 30,    Execution time    0.2 s
 
 Sparsity of Σ^c(iτ,k=0): Percentage of skipped atom pairs:                0.0 %

 
 SCF valence band maximum (eV):                                           -6.696
 SCF conduction band minimum (eV):                                        -2.981
 SCF indirect band gap (eV):                                               3.715
 SCF direct band gap (eV):                                                 3.715
 
 G0W0 valence band maximum (eV):                                          -7.504
 G0W0 conduction band minimum (eV):                                       -0.908
 G0W0 indirect band gap (eV):                                              6.596
 G0W0 direct band gap (eV):                                                6.596
 
 Hartree-Fock with SCF orbitals valence band maximum (eV):                -8.024
 Hartree-Fock with SCF orbitals conduction band minimum (eV)               1.688
 Hartree-Fock with SCF orbitals indirect band gap (eV):                    9.712
 Hartree-Fock with SCF orbitals direct band gap (eV):                      9.712

 ENERGY| Total FORCE_EVAL ( QS ) energy [hartree]          -1170.095360031378505

 -------------------------------------------------------------------------------
 -                                                                             -
 -                                DBCSR STATISTICS                             -
 -                                                                             -
 -------------------------------------------------------------------------------
 COUNTER                                    TOTAL       BLAS       SMM       ACC
 flops     9 x     9 x    10              2381400     100.0%      0.0%      0.0%     
 flops     9 x    34 x    10              2570400     100.0%      0.0%      0.0%     
 flops    34 x     9 x    10              2570400     100.0%      0.0%      0.0%     
 flops    34 x    34 x    10              4855200     100.0%      0.0%      0.0%     
 flops    30 x     9 x    10              8694000     100.0%      0.0%      0.0%     
 flops     9 x    30 x    10              9450000     100.0%      0.0%      0.0%     
 flops    34 x    30 x    10              9996000     100.0%      0.0%      0.0%     
 flops    30 x    34 x    10             12852000     100.0%      0.0%      0.0%     
 flops    30 x    30 x    10             45360000     100.0%      0.0%      0.0%     
 flops     9 x     9 x    32             83825280     100.0%      0.0%      0.0%     
 flops     9 x    34 x    32             90478080     100.0%      0.0%      0.0%     
 flops    34 x     9 x    32             90478080     100.0%      0.0%      0.0%     
 flops    34 x    34 x    32            170903040     100.0%      0.0%      0.0%     
 flops    30 x     9 x    32            306028800     100.0%      0.0%      0.0%     
 flops     9 x    30 x    32            332640000     100.0%      0.0%      0.0%     
 flops    34 x    30 x    32            351859200     100.0%      0.0%      0.0%     
 flops    30 x    34 x    32            452390400     100.0%      0.0%      0.0%     
 flops    30 x    30 x    32           1596672000     100.0%      0.0%      0.0%     
 flops inhomo. stacks                           0       0.0%      0.0%      0.0%
 flops total                         3.574004E+09     100.0%      0.0%      0.0%
 flops max/rank                    117.172160E+06     100.0%      0.0%      0.0%
 matmuls inhomo. stacks                         0       0.0%      0.0%      0.0%
 matmuls total                             114240     100.0%      0.0%      0.0%
 number of processed stacks                114240     100.0%      0.0%      0.0%
 average stack size                                     1.0       0.0       0.0
 marketing flops                   825.577984E+06
 -------------------------------------------------------------------------------
 # multiplications                             70
 max memory usage/rank              19.415687E+09
 # max total images/rank                        3
 # max 3D layers                                1
 # MPI messages exchanged                  591360
 MPI messages size (bytes):
  total size                         2.201539E+09
  min size                           0.000000E+00
  max size                          23.040000E+03
  average size                       3.722841E+03
 MPI breakdown and total messages size (bytes):
             size <=      128              362040                        0
       128 < size <=     8192              129990                629704320
      8192 < size <=    32768               99330               1571834880
     32768 < size <=   131072                   0                        0
    131072 < size <=  4194304                   0                        0
   4194304 < size <= 16777216                   0                        0
  16777216 < size                               0                        0
 -------------------------------------------------------------------------------

 *** WARNING in dbcsr_mm.F:301 :: Using a non-square number of MPI ranks ***
 *** might lead to poor performance. Used ranks: 192 Suggested: 196 400  ***

 -------------------------------------------------------------------------------
 -                                                                             -
 -                      DBCSR MESSAGE PASSING PERFORMANCE                      -
 -                                                                             -
 -------------------------------------------------------------------------------
 ROUTINE             CALLS      AVE VOLUME [Bytes]
 MP_Bcast               19                     12.
 MP_Allreduce          476                     10.
 MP_Alltoall          5382                  98505.
 MP_ISend             6580                   3302.
 MP_IRecv             6720                   2870.
 -------------------------------------------------------------------------------

 -------------------------------------------------------------------------------
 -                                                                             -
 -                                DBM STATISTICS                               -
 -                                                                             -
 -------------------------------------------------------------------------------
    M  x    N  x    K                                          COUNT     PERCENT
    ?  x    ?  x    ?                                         120338      41.05%
  ???  x   ??  x   ??                                          24200       8.25%
   ??  x   ??  x   ??                                          22461       7.66%
  ???  x    ?  x   ??                                          14520       4.95%
  ???  x   ??  x    ?                                          14520       4.95%
   ??  x    ?  x   ??                                          11604       3.96%
    ?  x   ??  x   ??                                          11414       3.89%
   ??  x   ??  x    ?                                           9117       3.11%
   ??  x   ??  x  ???                                           8800       3.00%
  ???  x    ?  x    ?                                           8712       2.97%
    ?  x   ??  x  ???                                           7710       2.63%
   ??  x    ?  x  ???                                           5279       1.80%
    ?  x    ?  x  ???                                           4621       1.58%
   ??  x    ?  x    ?                                           4356       1.49%
    ?  x    ?  x   ??                                           4043       1.38%
    ?  x  ???  x   ??                                           3720       1.27%
    ?  x   ??  x    ?                                           2784       0.95%
   ??  x  ???  x   ??                                           2480       0.85%
    ?  x  ???  x    ?                                           2228       0.76%
   ??  x   ??  x >999                                           2125       0.72%
    ?  x   ??  x >999                                           1815       0.62%
   ??  x  ???  x    ?                                           1487       0.51%
   ??  x    ?  x >999                                           1275       0.43%
    ?  x    ?  x >999                                           1089       0.37%
    ?  x >999  x   ??                                            930       0.32%
   ??  x >999  x   ??                                            620       0.21%
    ?  x >999  x    ?                                            558       0.19%
   ??  x >999  x    ?                                            372       0.13%
 -------------------------------------------------------------------------------

 -------------------------------------------------------------------------------
 -                                                                             -
 -                                GRID STATISTICS                              -
 -                                                                             -
 -------------------------------------------------------------------------------
 LP    KERNEL             BACKEND                              COUNT     PERCENT
 3     collocate ortho    CPU                                   9301      13.53%
 3     integrate ortho    CPU                                   9301      13.53%
 4     collocate ortho    CPU                                   6674       9.71%
 4     integrate ortho    CPU                                   6674       9.71%
 6     collocate ortho    CPU                                   5964       8.67%
 6     integrate ortho    CPU                                   5964       8.67%
 1     collocate ortho    CPU                                   5112       7.43%
 1     integrate ortho    CPU                                   5112       7.43%
 0     collocate ortho    CPU                                   3976       5.78%
 0     integrate ortho    CPU                                   3976       5.78%
 2     collocate ortho    CPU                                   2201       3.20%
 2     integrate ortho    CPU                                   2201       3.20%
 2     collocate general  CPU                                   1136       1.65%
 2     integrate general  CPU                                   1136       1.65%
 0     collocate general  CPU                                     16       0.02%
 0     integrate general  CPU                                     16       0.02%
 -------------------------------------------------------------------------------

 -------------------------------------------------------------------------------
 -                                                                             -
 -                          OFFLOAD MEMPOOL STATISTICS                         -
 -                                                                             -
 -------------------------------------------------------------------------------
 Memory consumption                Number of allocations  Used [MiB]  Size [MiB]
 Host                                                133          21          40
 -------------------------------------------------------------------------------

 MEMORY| Estimated peak process memory [MiB]                                1561

 -------------------------------------------------------------------------------
 ----                             MULTIGRID INFO                            ----
 -------------------------------------------------------------------------------
 count for grid        1:       30239071          cutoff [a.u.]          250.00
 count for grid        2:        4470651          cutoff [a.u.]           83.33
 count for grid        3:        3689953          cutoff [a.u.]           27.78
 count for grid        4:        1382080          cutoff [a.u.]            9.26
 total gridlevel count  :       39781755

 -------------------------------------------------------------------------------
 -                                                                             -
 -                         MESSAGE PASSING PERFORMANCE                         -
 -                                                                             -
 -------------------------------------------------------------------------------

 ROUTINE             CALLS      AVE VOLUME [Bytes]
 MP_Group             2953
 MP_Bcast             8072                 173235.
 MP_Allreduce        25548                  15824.
 MP_Sync              3877
 MP_Alltoall          4124                6577538.
 MP_SendRecv         27122                  69520.
 MP_ISendRecv        54626                  43729.
 MP_Wait             82637
 MP_comm_split        1694
 MP_ISend            31399                 285454.
 MP_IRecv            33215                 270296.
 -------------------------------------------------------------------------------


 -------------------------------------------------------------------------------
 -                                                                             -
 -                           R E F E R E N C E S                               -
 -                                                                             -
 -------------------------------------------------------------------------------
 
 CP2K version 2025.2 (Development Version), the CP2K developers group (2025).
 CP2K is freely available from https://www.cp2k.org/ .
 
 M. Graml, K. Zollner, D. Hernangómez-Pérez, P. E. Faria Junior, J. Wilhelm.
 J. Chem. Theory Comput. 20, 2202-2208 (2024).
 Low-scaling GW algorithm applied to twisted transition-metal dichalcogenide 
 heterobilayers.
 https://doi.org/10.1021/acs.jctc.3c01230

 T. D. Kuehne, M. Iannuzzi, M. Del Ben, V. V. Rybkin, P. Seewald, F. Stein, T. 
 Laino, R. Z. Khaliullin, O. Schuett, F. Schiffmann, D. Golze, J. Wilhelm, S. 
 Chulkov, M. H. Bani-Hashemian, V. Weber, U. Borstnik, M. Taillefumier, A. S. 
 Jakobovits, A. Lazzaro, H. Pabst, T. Mueller, R. Schade, M. Guidon, S. 
 Andermatt, N. Holmberg, G. K. Schenter, A. Hehn, A. Bussy, F. Belleflamme, G. 
 Tabacchi, A. Gloess, M. Lass, I. Bethune, C. J. Mundy, C. Plessl, M. Watkins, 
 J. VandeVondele, M. Krack, J. Hutter.
 J. Chem. Phys. 152, 194103 (2020).
 CP2K: An electronic structure and molecular dynamics software package - 
 Quickstep: Efficient and accurate electronic structure calculations.
 https://doi.org/10.1063/5.0007045

 O. Schuett, P. Messmer, J. Hutter, J. VandeVondele.
 Electronic Structure Calculations on Graphics Processing Units, 173-190 (2016).
 GPU-Accelerated Sparse Matrix-Matrix Multiplication for Linear Scaling Density 
 Functional Theory.
 https://doi.org/10.1002/9781118670712.ch8

 A. Heinecke, G. Henry, M. Hutchinson, H. Pabst.
 Proceedings of Intl. Supercomputing Conference, 981-991 (2016).
 LIBXSMM: Accelerating Small Matrix Multiplications by Runtime Code Generation.
 https://doi.org/10.1109/SC.2016.83

 J. Hutter, M. Iannuzzi, F. Schiffmann, J. VandeVondele.
 WIREs Comput Mol Sci. 4, 15-25 (2014).
 CP2K: atomistic simulations of condensed matter systems.
 https://doi.org/10.1002/wcms.1159

 U. Borstnik, J. VandeVondele, V. Weber, J. Hutter.
 Parallel Comput. 40, 47-58 (2014).
 Sparse matrix multiplication: The distributed block-compressed sparse row 
 library.
 https://doi.org/10.1016/j.parco.2014.03.012

 A. Marek, V. Blum, R. Johanni, V. Havu, B. Lang, T. Auckenthaler, A. Heinecke, 
 H. Bungartz, H. Lederer.
 J. Phys. Condens. Matter 26, 213201 (2014).
 The ELPA library: scalable parallel eigenvalue solutions for electronic 
 structure theory and computational science.
 https://doi.org/10.1088/0953-8984/26/21/213201

 M. Guidon, J. Hutter, J. VandeVondele.
 J. Chem. Theory Comput. 5, 3010-3021 (2009).
 Robust Periodic Hartree-Fock Exchange for Large-Scale Simulations Using 
 Gaussian Basis Sets.
 https://doi.org/10.1021/ct900494g

 M. Guidon, F. Schiffmann, J. Hutter, J. VandeVondele.
 J. Chem. Phys. 128, 214104 (2008).
 Ab initio molecular dynamics using hybrid density functionals.
 https://doi.org/10.1063/1.2931945

 L. Genovese, T. Deutsch, S. Goedecker.
 J. Chem. Phys. 127, 054704 (2007).
 Efficient and accurate three-dimensional Poisson solver for surface problems.
 https://doi.org/10.1063/1.2754685

 J. VandeVondele, J. Hutter.
 J. Chem. Phys. 127, 114105 (2007).
 Gaussian basis sets for accurate calculations on molecular systems in gas and 
 condensed phases.
 https://doi.org/10.1063/1.2770708

 L. Genovese, T. Deutsch, A. Neelov, S. Goedecker, G. Beylkin.
 J. Chem. Phys. 125, 074105 (2006).
 Efficient solution of Poisson's equation with free boundary conditions.
 https://doi.org/10.1063/1.2335442

 M. Frigo, S. G. Johnson.
 Proc. IEEE 93, 216-231 (2005).
 The design and implementation of FFTW3.
 https://doi.org/10.1109/JPROC.2004.840301

 M. Krack, M. Parrinello.
 Phys. Chem. Chem. Phys. 2, 2105-2112 (2000).
 All-electron ab-initio molecular dynamics.
 https://doi.org/10.1039/b001167n

 G. Lippert, J. Hutter, M. Parrinello.
 Theor. Chem. Acc. 103, 124-140 (1999).
 The Gaussian and augmented-plane-wave density functional method for ab initio 
 molecular dynamics simulations.
 https://doi.org/10.1007/s002140050523

 J. P. Perdew, K. Burke, M. Ernzerhof.
 Phys. Rev. Lett. 77, 3865-3868 (1996).
 Generalized gradient approximation made simple.
 https://doi.org/10.1103/PhysRevLett.77.3865


 -------------------------------------------------------------------------------
 -                                                                             -
 -                                T I M I N G                                  -
 -                                                                             -
 -------------------------------------------------------------------------------
 SUBROUTINE                       CALLS  ASD         SELF TIME        TOTAL TIME
                                MAXIMUM       AVERAGE  MAXIMUM  AVERAGE  MAXIMUM
 CP2K                                 1  1.0    0.016    0.027  109.215  109.220
 qs_energies                          1  2.0    0.000    0.000  108.896  108.902
 scf_env_do_scf                       1  3.0    0.000    0.000   90.497   90.502
 scf_env_do_scf_inner_loop           70  4.0    0.001    0.003   90.497   90.502
 qs_ks_build_kohn_sham_matrix        71  7.0    0.010    0.012   73.982   74.000
 qs_ks_update_qs_env                 70  5.0    0.001    0.001   73.558   73.575
 rebuild_ks_matrix                   70  6.0    0.000    0.000   73.552   73.569
 hfx_ks_matrix                       71  8.0    0.001    0.001   28.212   28.224
 integrate_four_center               71  9.0    1.515    2.148   28.209   28.221
 fft_wrap_pw1pw2                   1482 10.0    0.015    0.019   25.850   26.365
 fft3d_ps                          1482 12.0    2.719    3.811   24.403   24.895
 fft_wrap_pw1pw2_250               1056 11.1    0.404    0.489   24.329   24.889
 mp_alltoall_z22v                  1482 14.0   20.683   21.284   20.683   21.284
 integrate_four_center_main          71 10.0    0.046    4.663   10.703   20.602
 pw_poisson_solve                    71  8.0    0.106    0.158   18.127   18.144
 mp_sync                           3877 12.1   13.358   15.985   13.358   15.985
 integrate_four_center_bin         6771 11.0   10.657   15.938   10.657   15.938
 qs_energies_properties               1  3.0    0.000    0.000   15.194   15.199
 post_scf_bandstructure               1  4.0    0.000    0.000   15.194   15.199
 gw                                   1  5.0    0.000    0.000   14.989   14.991
 gw_calc_large_cell_Gamma             1  6.0    0.000    0.000   13.816   13.834
 qs_rho_update_rho_low               71  5.0    0.001    0.001   13.433   13.434
 calculate_rho_elec                  71  6.0    0.048    0.071   12.981   12.983
 qs_vxc_create                       71  8.0    0.001    0.001   11.816   11.923
 xc_vxc_pw_create                    70  9.0    0.072    0.100   11.815   11.922
 x_to_yz                            633 12.9    0.324    0.500   10.807   11.105
 yz_to_x                            565 13.2    0.208    0.239   10.362   10.621
 xc_pw_derive                       420 11.0    0.002    0.003    9.397    9.599
 density_rs2pw                       71  7.0    0.002    0.003    8.667    9.310
 ps_wavelet_solve                    71  9.0    1.966    2.793    8.592    8.987
 dbt_total                          699  9.0    0.003    0.003    7.436    7.437
 get_Sigma_c                          1  7.0    0.001    0.001    7.000    7.002
 dbt_contract                       243  9.9    0.007    0.008    6.781    6.782
 dbt_tas_multiply                   486 12.4    0.001    0.001    6.725    6.726
 dbt_tas_total                      486 13.4    0.029    0.036    6.716    6.717
 xc_pw_divergence                    70 10.0    0.001    0.001    6.212    6.388
 sum_up_and_integrate                71  8.0    0.001    0.001    5.650    5.905
 integrate_v_rspace                  71  9.0    0.002    0.002    5.627    5.888
 mp_waitany                       23396 11.5    4.662    5.767    4.662    5.767
 mp_alltoall_d45                     72 10.0    5.037    5.645    5.037    5.645
 xc_rho_set_and_dset_create          70 10.0    0.076    0.090    5.361    5.610
 potential_pw2rs                     71 10.0    0.005    0.006    5.324    5.348
 transfer_rs2pw                     356  8.4    0.006    0.011    4.527    5.196
 mp_alltoall_d54                     71 10.0    3.143    5.083    3.143    5.083
 prepare_gapw_den                    71  8.0    0.001    0.001    4.694    4.745
 transfer_pw2rs                     356 10.6    0.003    0.004    4.295    4.668
 mp_alltoall_d11v                  2762 10.7    3.951    4.508    3.951    4.508
 grid_collocate_task_list            71  7.0    4.117    4.497    4.117    4.497
 get_mat_chi_Gamma_tau                1  7.0    0.000    0.001    4.242    4.260
 contract_to_Sigma                   61  8.0    0.001    0.001    4.237    4.237
 calc_screening_functions             1 10.0    3.562    3.681    3.961    4.080
 gspace_mixing                       69  5.0    0.046    0.070    3.435    3.435
 put_rho0_on_grid                    71  9.0    0.052    0.076    3.057    3.108
 transfer_rs2pw_250                 143 10.0    0.679    0.744    2.391    3.055
 build_3c_integrals                 156  9.6    1.825    2.831    2.034    3.020
 transfer_pw2rs_250                 143 11.0    0.625    0.775    2.529    3.015
 compute_3c_integrals               152  8.6    0.002    0.002    2.984    2.984
 integrate_vhg0_rspace               71  8.0    0.125    0.163    2.315    2.620
 mp_sum_d                          7028  6.9    2.038    2.487    2.038    2.487
 init_scf_run                         1  3.0    0.000    0.000    2.424    2.424
 cp_fm_diag_elpa                     76  7.1    0.000    0.000    2.192    2.326
 scf_env_initial_rho_setup            1  4.0    0.000    0.000    2.130    2.195
 qs_scf_new_mos                      70  5.0    0.001    0.001    2.153    2.163
 compute_3c_and_contract_W           31  8.0    0.000    0.000    2.133    2.133
 dbt_tas_dbm                        486 14.4    0.001    0.001    2.074    2.074
 cp_fm_diag_elpa_base                76  8.1    1.904    1.930    1.968    2.008
 cp_fm_redistribute_end              76  8.1    0.069    1.963    0.076    1.980
 get_W_MIC                            1  7.0    0.000    0.000    1.975    1.975
 compute_W_MIC                        1  8.0    0.000    0.000    1.975    1.975
 eigensolver_symm                    70  6.0    0.005    0.006    1.911    1.918
 dbm_multiply                       486 16.4    1.580    1.853    1.580    1.853
 cp2k_distribution_to_z_slices       71  9.0    0.134    0.159    1.573    1.853
 broyden_mixing                      69  6.0    1.705    1.762    1.767    1.822
 pw_poisson_rebuild                  71  9.0    0.000    0.000    1.684    1.723
 ps_wavelet_create                    1 10.0    0.000    0.000    1.684    1.723
 RS_z_slice_distribution              1 11.0    0.103    0.115    1.684    1.723
 mp_waitall_1                     67193 12.0    1.334    1.710    1.334    1.710
 dbt_tas_create_split              1618 15.2    0.003    0.003    1.663    1.686
 dbt_tas_create_split_rows_or_c    1618 16.2    0.003    0.004    1.660    1.683
 compute_fm_W_MIC_freq_j             30  9.0    0.000    0.000    1.618    1.619
 mp_sum_dv                        11193  8.7    1.227    1.526    1.227    1.526
 transfer_rs2pw_90                   71  9.0    0.167    0.260    1.395    1.513
 mp_sum_dm                         3477  7.7    1.298    1.434    1.298    1.434
 calculate_rho_atom                 284  9.0    0.313    1.377    0.313    1.377
 fft_wrap_pw1pw2_90                 142 10.5    0.015    0.023    1.081    1.287
 G_times_3c                          60  8.0    0.000    0.000    1.236    1.236
 transfer_pw2rs_90                   71 12.0    0.135    0.204    0.995    1.205
 create_and_init_bs_env_for_gw        1  6.0    0.000    0.000    1.173    1.199
 dbt_tas_distribution_new          1774 14.6    0.465    0.473    1.183    1.191
 dbt_tas_estimate_result_nze        243 12.9    0.043    0.070    1.143    1.143
 cp_cfm_heevd                        32 10.8    0.000    0.000    1.103    1.123
 cp_cfm_heevd_base                   32 11.8    1.103    1.123    1.103    1.123
 cp_cfm_power                        30 10.0    0.000    0.000    1.103    1.110
 calculate_vxc_atom                  71  8.0    0.023    0.134    0.996    0.997
 fm_to_local_tensor                 152  8.0    0.002    0.002    0.725    0.993
 convert_to_new_pgrid              1458 14.4    0.340    0.489    0.804    0.973
 reshape_mm_small                   486 14.4    0.024    0.025    0.927    0.946
 dbt_tas_mm_2                       182 15.2    0.000    0.000    0.940    0.940
 mp_bcast_i                        2210 13.1    0.914    0.917    0.914    0.917
 gaVxcgb_GC                         140  9.0    0.024    0.871    0.024    0.871
 dbm_redistribute                   912 14.1    0.686    0.850    0.686    0.850
 reshape_mm_compatible              486 14.4    0.005    0.006    0.782    0.796
 parallel_gemm_fm_cosma             324  8.3    0.731    0.791    0.731    0.791
 powell_optimize                 740765 11.0    0.738    0.780    0.738    0.780
 transfer_rs2pw_30                   71  9.0    0.277    0.314    0.622    0.777
 change_split                       729 14.9    0.002    0.002    0.759    0.772
 transfer_pw2rs_30                   71 12.0    0.153    0.191    0.632    0.772
 calc_pair_dist_radii                 1 10.0    0.380    0.425    0.719    0.771
 qs_energies_init_hamiltonians        1  3.0    0.000    0.000    0.743    0.743
 parallel_gemm_cfm                  283 10.4    0.000    0.000    0.705    0.734
 parallel_gemm_cfm_cosma            283 11.4    0.704    0.734    0.704    0.734
 build_core_hamiltonian_matrix        1  4.0    0.000    0.000    0.727    0.728
 overlap_condnum                      1  5.0    0.000    0.000    0.724    0.727
 xc_functional_eval                 350 10.9    0.001    0.001    0.467    0.724
 pbe_lda_eval                       350 11.9    0.467    0.724    0.467    0.724
 dbt_tas_mm_3N                       62 15.5    0.000    0.000    0.581    0.654
 dbcsr_complete_redistribute        556  9.5    0.011    0.014    0.289    0.613
 mp_sum_l                          3059 13.8    0.453    0.592    0.453    0.592
 mp_alltoall_i22                    826 10.5    0.228    0.590    0.228    0.590
 rs_grid_zero                       357 11.2    0.447    0.586    0.447    0.586
 mp_waitall_2                      2978 16.0    0.380    0.584    0.380    0.584
 mp_sendrecv_dv                   27122 10.0    0.408    0.567    0.408    0.567
 setup_time_and_frequency_minim       1  7.0    0.000    0.000    0.519    0.542
 grid_integrate_task_list            71 10.0    0.061    0.528    0.061    0.528
 rs_gather_matrices                  71 10.0    0.001    0.012    0.240    0.517
 pw_copy                           1060 10.6    0.442    0.502    0.442    0.502
 pw_derive                          633 11.3    0.448    0.499    0.448    0.499
 compute_cfm_W_ikp_freq_j            30 10.0    0.000    0.000    0.472    0.478
 calculate_rho_atom_coeff            71  6.0    0.037    0.067    0.451    0.451
 dbt_tas_replicate                  486 14.4    0.030    0.047    0.332    0.449
 dbt_copy                           456 10.1    0.004    0.005    0.295    0.442
 arnoldi_conjugate_gradient           5  6.0    0.007    0.008    0.441    0.441
 dbt_tas_communicate_buffer        1124 16.5    0.009    0.016    0.298    0.441
 compute_V_xc                         1  7.0    0.000    0.000    0.431    0.432
 mp_comm_split_direct              1620 17.2    0.421    0.423    0.421    0.424
 copy_dbcsr_to_fm                   264  8.4    0.002    0.003    0.398    0.423
 pw_gather_p                        707 11.8    0.363    0.413    0.363    0.413
 copy_fm_to_dbcsr                   292  8.5    0.000    0.001    0.072    0.411
 mp_isend_dv                      36931 12.6    0.235    0.404    0.235    0.404
 dbt_reshape                        274 10.9    0.066    0.089    0.248    0.382
 pw_scatter_p                       775 12.1    0.318    0.364    0.318    0.364
 mp_bcast_dm                       2273  9.0    0.351    0.358    0.351    0.358
 mp_alltoall_z11v                   284 13.5    0.318    0.356    0.318    0.356
 dbt_create_matrix                  152  9.0    0.001    0.001    0.343    0.345
 cp_fm_power                          3  8.7    0.000    0.000    0.333    0.337
 compute_QP_energies                  1  7.0    0.000    0.000    0.335    0.336
 fft_wrap_pw1pw2_30                 142 10.5    0.002    0.003    0.264    0.334
 dbt_distribution_new_expert        316 10.5    0.002    0.002    0.328    0.328
 pw_poisson_set                      72  9.0    0.001    0.001    0.294    0.312
 integrate_four_center_getP          71 10.0    0.011    0.013    0.256    0.304
 cp_fm_redistribute_start            76  8.1    0.098    0.124    0.148    0.300
 write_matrix                        91  8.0    0.000    0.000    0.250    0.298
 calculate_rho0_atom                284  9.0    0.286    0.296    0.286    0.296
 G_occ_vir                          121  8.0    0.001    0.001    0.267    0.295
 dbcsr_sym_matrix_vector_mult      3635  7.0    0.016    0.019    0.254    0.291
 multiply_fm_W_MIC_time_with_Mi       2  9.0    0.000    0.000    0.290    0.290
 mp_irecv_dv                      34695 12.6    0.039    0.285    0.039    0.285
 dbt_tas_replicate_communicate_     304 15.5    0.001    0.002    0.166    0.281
 mp_alltoall_i                     1917 14.5    0.263    0.280    0.263    0.280
 update_ks_atom                      71  8.0    0.025    0.051    0.262    0.279
 integrate_four_center_load          71 10.0    0.000    0.000    0.154    0.276
 hfx_load_balance                     1 11.0    0.000    0.000    0.154    0.276
 dbt_tas_reshape                    638 14.5    0.005    0.008    0.235    0.273
 to_ikp_and_mo                       62  8.0    0.000    0.001    0.264    0.264
 pw_copy_to_array                   707 11.8    0.209    0.264    0.209    0.264
 get_Sigma_x                          1  7.0    0.000    0.000    0.264    0.264
 compute_Sigma_x                      1  8.0    0.000    0.000    0.264    0.264
 hfx_load_balance_range               1 12.0    0.000    0.000    0.140    0.262
 fm_Gamma_ao_to_cfm_ikp_mo           62  9.0    0.000    0.000    0.248    0.261
 mp_cart_create                    3223 14.8    0.234    0.259    0.235    0.260
 dbt_communicate_buffer             274 11.9    0.002    0.003    0.142    0.258
 mp_comm_dup                       1379 17.6    0.230    0.253    0.231    0.253
 fm_write                           121  9.0    0.003    0.061    0.166    0.244
 pw_integral_ab_c1d_c1d_gs           71  9.0    0.093    0.104    0.192    0.242
 mp_isend_dm3                      2852 11.5    0.086    0.211    0.086    0.211
 mp_max_i                          1029  6.6    0.148    0.210    0.148    0.210
 calculate_dm_sparse                 70  6.0    0.000    0.000    0.133    0.209
 cp_dbcsr_plus_fm_fm_t               70  7.0    0.001    0.001    0.132    0.209
 abc_contract_xsmm                45860 10.5    0.065    0.207    0.065    0.207
 dbt_tas_mm_3T                      122 15.5    0.000    0.000    0.156    0.201
 dbt_tas_mm_1N                      120 15.5    0.000    0.000    0.153    0.200
 dbcsr_desymmetrize_deep            270  9.4    0.003    0.004    0.177    0.197
 xz_to_yz                           142 11.0    0.004    0.016    0.182    0.196
 cp_fm_write_unformatted            125  9.9    0.170    0.184    0.170    0.192
 pw_copy_from_array                 775 12.1    0.120    0.191    0.120    0.191
 get_l_sq_wghts_sin_tf_t_to_w         1  8.0    0.174    0.185    0.174    0.185
 get_l_sq_wghts_cos_tf_t_to_w         1  8.0    0.176    0.184    0.176    0.184
 dbt_tas_merge                      182 14.2    0.019    0.027    0.151    0.184
 Vh_1c_gg_integrals                  71  8.0    0.008    0.177    0.179    0.182
 dbcsr_rep_row_to_rep_col_vec      3635  8.0    0.006    0.007    0.079    0.182
 check_sparsity_3c                    1  7.0    0.000    0.000    0.180    0.180
 pw_axpy                            705  9.3    0.155    0.178    0.155    0.178
 get_l_sq_wghts_cos_tf_w_to_t         1  8.0    0.168    0.177    0.170    0.178
 yz_to_xz                           142 14.0    0.006    0.007    0.146    0.176
 fft_wrap_pw1pw2_10                 142 10.5    0.001    0.001    0.162    0.173
 mp_cart_sub                        546 10.5    0.147    0.171    0.147    0.171
 dbm_reserve_blocks                2920 15.9    0.106    0.171    0.106    0.171
 dbt_tas_reserve_blocks_index      2434 15.0    0.002    0.002    0.103    0.169
 qs_init_subsys                       1  2.0    0.001    0.001    0.162    0.162
 qs_env_setup                         1  3.0    0.000    0.000    0.152    0.153
 qs_env_rebuild_pw_env                2  3.5    0.000    0.000    0.152    0.153
 pw_env_rebuild                       1  5.0    0.000    0.000    0.152    0.153
 integrate_four_center_dist_KS       71 10.0    0.011    0.014    0.151    0.152
 transfer_pw2rs_10                   71 12.0    0.041    0.048    0.137    0.149
 cp_fm_symm                          70  7.0    0.132    0.142    0.132    0.142
 dbt_tas_copy                       486 13.8    0.028    0.042    0.089    0.141
 dbt_tas_merge_communicate_buff     182 15.2    0.001    0.001    0.112    0.137
 pw_zero                            422 10.3    0.113    0.133    0.113    0.133
 mp_rank_compare                   1482 13.0    0.121    0.126    0.121    0.126
 pw_grid_setup                        4  6.0    0.000    0.000    0.123    0.124
 pw_grid_setup_internal               4  7.0    0.001    0.001    0.123    0.124
 cp_cfm_geeig                         2  7.0    0.000    0.000    0.121    0.121
 transfer_rs2pw_10                   71  9.0    0.048    0.056    0.112    0.120
 dbt_tas_reshape_alltoall           638 15.5    0.000    0.001    0.115    0.120
 create_and_init_bs_env               1  5.0    0.000    0.000    0.119    0.119
 cp_cfm_cholesky_invert              31 11.0    0.113    0.115    0.113    0.115
 diagonalize_ks_matrix                1  6.0    0.000    0.000    0.112    0.113
 cp_fm_geeig_canon                    1  7.0    0.000    0.000    0.112    0.113
 dbcsr_col_vec_to_rep_row          3635  8.0    0.008    0.009    0.079    0.111
 create_qs_kind_set                   1  2.0    0.000    0.000    0.108    0.108
 read_qs_kind                         4  3.0    0.029    0.050    0.108    0.108
 dbt_tas_reserve_blocks_templat     972 14.4    0.001    0.002    0.064    0.107
 dbt_tas_replicate_alltoall         304 15.5    0.000    0.000    0.094    0.107
 cp_cfm_cholesky_decompose           35 10.7    0.093    0.096    0.093    0.096
 dbcsr_multiply_generic              70  8.0    0.002    0.002    0.092    0.095
 fill_fm_Sigma_c_Gamma_time           1  8.0    0.000    0.000    0.092    0.093
 dos_pdos_ldos                        1  5.0    0.000    0.000    0.086    0.089
 dbcsr_dot                          141  8.0    0.001    0.001    0.022    0.086
 dbcsr_add_d                       6406  7.6    0.002    0.002    0.020    0.083
 calculate_first_density_matrix       1  5.0    0.000    0.000    0.019    0.083
 calculate_atomic_block_dm            1  6.0    0.001    0.001    0.019    0.083
 dbcsr_add_anytype                 6406  8.6    0.003    0.011    0.018    0.081
 parser_read_line                 29278  4.0    0.003    0.003    0.079    0.081
 parser_read_line_low                42  5.0    0.001    0.014    0.077    0.078
 broadcast_input_information         42  6.0    0.004    0.004    0.076    0.077
 compute_MinvVsqrt_Vsqrt              1  9.0    0.000    0.000    0.067    0.068
 dbt_tas_reshape_buffer_obtain      638 15.5    0.043    0.049    0.056    0.067
 dbcsr_finalize                    9056 11.2    0.005    0.018    0.022    0.067
 cp_fm_uplo_to_full                  79  9.1    0.033    0.064    0.033    0.064
 mp_bcast_b_src                     146  7.6    0.037    0.064    0.037    0.064
 cube_transpose_2                   142 11.0    0.002    0.003    0.031    0.060
 mp_sum_im                           85  8.9    0.057    0.058    0.057    0.058
 dbt_create_new                     158 10.0    0.001    0.002    0.056    0.058
 mp_irecv_dm3                      2852 11.5    0.015    0.057    0.015    0.057
 dbt_reserve_blocks_index           824 12.3    0.001    0.001    0.035    0.057
 mp_bcast_dv                       3709  9.0    0.034    0.055    0.034    0.055
 rs_scatter_matrices                 71  7.0    0.000    0.001    0.010    0.051
 mp_bcast_i_src                     168  7.0    0.047    0.049    0.047    0.049
 compute_fm_chi_Gamma_freq           30 10.0    0.000    0.000    0.041    0.048
 dbcsr_copy                       15152  7.6    0.013    0.037    0.023    0.048
 dbt_tas_reshape_buffer_fill        638 15.5    0.032    0.048    0.032    0.048
 pw_grid_remap                        4  8.0    0.001    0.001    0.045    0.046
 mp_sum_im3                           6  9.5    0.044    0.045    0.044    0.045
 dbt_tas_reshape_communicate_bu     638 15.5    0.003    0.004    0.025    0.043
 dbt_pgrid_create_expert            320 11.5    0.001    0.001    0.040    0.042
 local_dbt_to_global_mat             91  8.0    0.000    0.000    0.039    0.041
 multiply_cannon                     70  9.0    0.004    0.005    0.037    0.040
 make_m2s                           140  9.0    0.001    0.002    0.038    0.040
 get_fft_scratch                   1483 12.9    0.005    0.006    0.013    0.038
 dbt_tas_mp_comm                    243 12.9    0.001    0.002    0.036    0.037
 mp_comm_free                      7041 13.5    0.033    0.037    0.033    0.037
 scf_post_calculation_gpw             1  3.0    0.000    0.000    0.037    0.037
 write_available_results              1  4.0    0.000    0.000    0.036    0.037
 write_mo_free_results                1  5.0    0.001    0.002    0.036    0.037
 scale_and_distribute               142 10.0    0.027    0.035    0.027    0.035
 dbcsr_merge_all                   7556 12.3    0.009    0.030    0.012    0.035
 alloc_block_3c                     156 10.6    0.003    0.009    0.024    0.034
 mp_isendrecv_dv                  54244 12.0    0.021    0.033    0.021    0.033
 compute_proj_mo_on_kind              1  6.0    0.000    0.000    0.032    0.032
 cp_fm_gemm                           3  8.0    0.032    0.032    0.032    0.032
 pw_grid_sort                         4  8.0    0.021    0.021    0.029    0.030
 cube_transpose_1                   142 14.0    0.001    0.004    0.017    0.030
 mp_sum_i                           648 14.2    0.026    0.030    0.026    0.030
 check_for_restart_files              1  7.0    0.027    0.030    0.027    0.030
 dbcsr_iterator_start             48253  9.0    0.017    0.023    0.021    0.030
 dbt_reserve_blocks_index_array     516 12.0    0.001    0.001    0.016    0.030
 dbm_add                            486 14.4    0.018    0.029    0.018    0.029
 make_images                        140 10.0    0.002    0.003    0.027    0.029
 vxc_of_r_new                       280  9.0    0.000    0.004    0.001    0.028
 mp_alltoall_i11v                  1938 10.5    0.013    0.027    0.013    0.027
 multiply_cannon_loop                70 10.0    0.003    0.003    0.024    0.026
 cp_fm_norm                           2  6.0    0.008    0.026    0.008    0.026
 global_matrix_to_local_matrix      152  9.0    0.001    0.001    0.023    0.026
 dbt_nd_mp_comm                     152 10.0    0.000    0.000    0.024    0.025
 cp_cfm_triangular_multiply           6  8.0    0.016    0.025    0.016    0.025
 local_matrix_to_global_matrix       91  9.0    0.000    0.000    0.014    0.025
 mp_bcast_am_src                     42  7.0    0.020    0.022    0.022    0.024
 dbt_tas_create_new                2345 14.5    0.007    0.023    0.007    0.023
 make_images_sizes                  140 11.0    0.000    0.000    0.019    0.023
 mp_alltoall_i44                    140 12.0    0.019    0.022    0.019    0.022
 hybrid_alltoall_any                410 11.0    0.002    0.002    0.010    0.022
 pw_scale                           281  9.5    0.015    0.020    0.015    0.020
 mp_sum_iv                          179  8.7    0.018    0.020    0.018    0.020
 dbt_crop                           212 11.0    0.009    0.013    0.013    0.020
 dbcsr_create_new                 18028  8.9    0.013    0.014    0.017    0.018
 dbcsr_iterator_stop              48253  9.0    0.012    0.015    0.014    0.018
 build_3c_integrals_put_dbcsr      3640 10.6    0.006    0.018    0.006    0.018
 hirshfeld_integration                1  6.0    0.000    0.003    0.018    0.018
 dbt_tas_merge_alltoall             182 15.2    0.000    0.000    0.017    0.018
 mp_recv_dv                        3830 10.9    0.000    0.018    0.000    0.018
 compute_max_radius                   1  6.0    0.017    0.018    0.017    0.018
 mp_maxloc_dv                      1631  1.0    0.017    0.017    0.017    0.017
 pw_grid_distribute                   4  8.0    0.004    0.004    0.016    0.016
 calculate_hirshfeld_normalizat       1  6.0    0.000    0.003    0.015    0.016
 send_sizes_1                       152 10.0    0.000    0.000    0.012    0.016
 qs_env_update_s_mstruct              1  4.0    0.000    0.000    0.012    0.015
 multiply_cannon_metrocomm3        1680 11.0    0.001    0.002    0.010    0.015
 qs_create_task_list                  1  5.0    0.000    0.000    0.012    0.015
 generate_qs_task_list                1  6.0    0.000    0.000    0.012    0.015
 distribute_tasks                     1  7.0    0.000    0.000    0.012    0.015
 RI_2c_integral_mat                   4  9.8    0.000    0.000    0.014    0.014
 write_mo_set_to_restart             70  5.0    0.001    0.004    0.007    0.014
 dbt_buffer_get_index            215808 16.0    0.013    0.014    0.013    0.014
 mixing_init                          1  5.0    0.012    0.013    0.013    0.013
 cp_cfm_uplo_to_full                 31 11.0    0.000    0.000    0.003    0.013
 dbcsr_work_create                 8106 11.3    0.003    0.009    0.004    0.013
 cp_cfm_transpose                    31 12.0    0.003    0.013    0.003    0.013
 create_tensors                       1  7.0    0.000    0.000    0.012    0.012
 xc_pw_smooth                        70 10.0    0.000    0.000    0.010    0.012
 create_fast_col_vec_access        7270  8.0    0.007    0.007    0.011    0.012
 create_fast_row_vec_access        7270  8.0    0.006    0.007    0.011    0.012
 dbcsr_filter_anytype               715  9.9    0.001    0.001    0.005    0.012
 dbt_copy_nocomm                     30 10.0    0.003    0.006    0.006    0.011
 dbcsr_work_destroy_all            8106 12.1    0.002    0.008    0.003    0.011
 make_images_data                   140 11.0    0.001    0.001    0.004    0.011
 -------------------------------------------------------------------------------

 The number of warnings for this run is : 1
 
 -------------------------------------------------------------------------------
  **** **** ******  **  PROGRAM ENDED AT                 2025-10-25 09:08:12.146
 ***** ** ***  *** **   PROGRAM RAN ON                                    cn1201
 **    ****   ******    PROGRAM RAN BY                                  metdyn02
 ***** **    ** ** **   PROGRAM PROCESS ID                               1890761
  **** **  *******  **  PROGRAM STOPPED IN /scratch/hpc-prf-metdyn/metdyn02_Remi
                                           /04_mol/Benchmark_mol_low_scal/aUKBqs
                                           EOTmq69kFe5R_nOg/5k_set_final_qzvp/MO
                                           LJED/DZVP/1e-2/3.0
