&GLOBAL
  PROJECT  MoS2
  PRINT_LEVEL MEDIUM
  RUN_TYPE ENERGY
  &TIMINGS
     THRESHOLD 0.0001
  &END
  TRACE
  TRACE_MASTER
  TRACE_ROUTINES compute_chi dbt_create_2c_R dbt_create_3c_R1_R2 dbt_create G_occ_vir contract_M_occ_vir_to_chi local_dbt_to_global_fm
&END GLOBAL
&FORCE_EVAL
  METHOD Quickstep
  &PROPERTIES
  &TDDFPT                          ! input section for TDDFPT
       KERNEL FULL                       ! specification of the underlying kernel matrix K
                                         ! FULL kernel is for GGA and hybrid functional computations
                                         ! sTDA kernel is referring to a semi-empirical sTDA computation
       NSTATES 20                      ! specifies the number of excited states to be computed
       MAX_ITER   100                  ! number of iterations for the Davidson algorithm
       CONVERGENCE [eV] 1.0e-6         ! convergence threshold in eV
       &XC                            ! If choosing kernel FULL, the underlying functional can be
        &XC_FUNCTIONAL PBE0             ! specified by adding an XC section
        &END XC_FUNCTIONAL              ! The functional can be chosen independently from the chosen
  	 &HF
          &MEMORY 
            MAX_MEMORY 8000
  	   &END MEMORY
  	 &END HF
       &END XC                        ! GS functional except when choosing ADMM 
    &END TDDFPT
   &END PROPERTIES
  &DFT
    BASIS_SET_FILE_NAME /scratch/hpc-prf-metdyn/metdyn02_Remi/BASIS_AUG_MOLOPT/BASIS_ALL_MOLOPT_AUG_for_excited_states
    BASIS_SET_FILE_NAME /scratch/hpc-prf-metdyn/metdyn02_Remi/BASIS_AUG_MOLOPT/BASIS_ALL_MOLOPT_AUG_for_excited_states_RI
    BASIS_SET_FILE_NAME /scratch/hpc-prf-metdyn/metdyn02_Remi/BASIS_AUG_MOLOPT/aug-cc-pVZ
    BASIS_SET_FILE_NAME /scratch/hpc-prf-metdyn/metdyn02_Remi/BASIS_AUG_MOLOPT/aug-cc-pVZ-TOTRI
    SORT_BASIS EXP
    POTENTIAL_FILE_NAME  /pc2/groups/hpc-prf-metdyn/metdyn02_Remi/cp2k/cp2k/data/ALL_POTENTIALS 
    CHARGE 0
    &MGRID
      CUTOFF  500
      REL_CUTOFF  100
    &END MGRID
    &POISSON
      PERIODIC NONE
      POISSON_SOLVER WAVELET
    &END POISSON
    &QS
      METHOD GAPW
      EPS_DEFAULT 1.0E-12
      EPS_PGF_ORB 1.0E-12
    &END QS
    &SCF
      SCF_GUESS ATOMIC
      EPS_SCF 1.0E-6
      MAX_SCF 500
      &PRINT
        &RESTART ON
        &END
      &END
      ADDED_MOS -1
      &MIXING
          METHOD BROYDEN_MIXING
          ALPHA 0.1
          BETA 1.5
          NBROYDEN 8
      &END
      CHOLESKY OFF
    &END SCF
    &XC
      &XC_FUNCTIONAL PBE0
      &END XC_FUNCTIONAL
      &HF
         &MEMORY
          MAX_MEMORY 8000
         &END MEMORY
      &END HF
     ! &WF_CORRELATION
     ! 	&RI_RPA
     !	  QUADRATURE_POINTS 100
     ! 	  &GW
     !	    CORR_MOS_OCC -1
     !	    CORR_MOS_VIRT -1
     !	    &BSE
     !         BSE_DIAG_METHOD FULLDIAG
     !        TDA OFF
     !      &END BSE 
     !    &END GW	
     !  &END RI_RPA
     !&END WF_CORRELATION
    &END XC
    &PRINT
    &OVERLAP_CONDITION ON
    DIAGONALIZATION T
    &END OVERLAP_CONDITION
    &END PRINT
  &END DFT
    &SUBSYS
    &CELL
      ABC                 30 30 30
      ALPHA_BETA_GAMMA    90 90 90
      PERIODIC NONE
    &END CELL

     &KIND O
      BASIS_SET ORB aug-TZVP-MOLOPT-ae
      BASIS_SET RI_AUX RI_aug-TZVP-MOLOPT-ae_N_RI_119_s_p_d_f_g_h_i_7_6_6_5_2_1_0_error_5.1e-06
      POTENTIAL ALL
     &END KIND

     &KIND N
      BASIS_SET ORB aug-TZVP-MOLOPT-ae
      BASIS_SET RI_AUX RI_aug-TZVP-MOLOPT-ae_N_RI_112_s_p_d_f_g_h_i_7_6_6_4_2_1_0_error_8.5e-06
      POTENTIAL ALL
     &END KIND

     &KIND C
      BASIS_SET ORB aug-TZVP-MOLOPT-ae
      BASIS_SET RI_AUX RI_aug-TZVP-MOLOPT-ae_N_RI_094_s_p_d_f_g_h_i_7_6_6_3_2_0_0_error_3.2e-06
      POTENTIAL ALL
     &END KIND

     &KIND H
      BASIS_SET ORB aug-TZVP-MOLOPT-ae
      BASIS_SET RI_AUX RI_aug-TZVP-MOLOPT-ae_N_RI_031_s_p_d_f_g_h_i_6_5_2_0_0_0_0_error_4.5e-06
      POTENTIAL ALL
     &END KIND

    




    &TOPOLOGY
     &CENTER_COORDINATES T
     &END CENTER_COORDINATES
    &END TOPOLOGY


    &COORD
     O 17.31435380 20.23818470 14.54111032
     O 18.97261948 20.83468855 15.83690005
     N 18.02152708 21.08949292 15.09031777
     O 16.75042826 26.44235957 14.06608828
     C 17.12095144 25.17185094 14.36291254
     C 16.63966171 22.82883540 13.99768025
     C 16.34806156 24.16062195 13.76221772
     C 17.49226201 27.51851093 14.64316789
     H 16.05604223 22.03109269 13.54440734
     H 17.02168861 28.43260783 14.26995875
     H 15.52285151 24.45058620 13.11388519
     H 18.54590639 27.49402731 14.32612730
     C 18.19293090 24.83045070 15.20481137
     C 18.48321670 23.49008514 15.43920150
     C 17.70899654 22.50167974 14.83757937
     H 19.30710006 23.19797081 16.08627299
     H 17.43522305 27.50030862 15.74211265
     H 18.80195178 25.59670762 15.67809248
&END COORD
  &END SUBSYS
&END FORCE_EVAL
