&GLOBAL
  PROJECT  MoS2
  PRINT_LEVEL MEDIUM
  RUN_TYPE ENERGY
  &TIMINGS
     THRESHOLD 0.0001
  &END
  TRACE
  TRACE_MASTER
  TRACE_ROUTINES compute_chi dbt_create_2c_R dbt_create_3c_R1_R2 dbt_create G_occ_vir contract_M_occ_vir_to_chi local_dbt_to_global_fm
&END GLOBAL
&FORCE_EVAL
  METHOD Quickstep
  !&PROPERTIES
  !&TDDFPT                          ! input section for TDDFPT
  !     KERNEL FULL                       ! specification of the underlying kernel matrix K
  !                                       ! FULL kernel is for GGA and hybrid functional computations
  !                                       ! sTDA kernel is referring to a semi-empirical sTDA computation
  !     NSTATES 20                      ! specifies the number of excited states to be computed
  !     MAX_ITER   100                  ! number of iterations for the Davidson algorithm
  !     CONVERGENCE [eV] 1.0e-6         ! convergence threshold in eV
  !     &XC                            ! If choosing kernel FULL, the underlying functional can be
  !      &XC_FUNCTIONAL PBE0             ! specified by adding an XC section
  !      &END XC_FUNCTIONAL              ! The functional can be chosen independently from the chosen
  !	 &HF
  !        &MEMORY 
  !          MAX_MEMORY 8000
  !	   &END MEMORY
  !	 &END HF
  !     &END XC                        ! GS functional except when choosing ADMM 
  !  &END TDDFPT
  !  &END PROPERTIES
  &DFT
    BASIS_SET_FILE_NAME /scratch/hpc-prf-metdyn/metdyn02_Remi/BASIS_AUG_MOLOPT/BASIS_ALL_MOLOPT_AUG_for_excited_states
    BASIS_SET_FILE_NAME /scratch/hpc-prf-metdyn/metdyn02_Remi/BASIS_AUG_MOLOPT/BASIS_ALL_MOLOPT_AUG_for_excited_states_RI
    BASIS_SET_FILE_NAME /scratch/hpc-prf-metdyn/metdyn02_Remi/BASIS_AUG_MOLOPT/aug-cc-pVZ
    BASIS_SET_FILE_NAME /scratch/hpc-prf-metdyn/metdyn02_Remi/BASIS_AUG_MOLOPT/aug-cc-pVZ-TOTRI
    SORT_BASIS EXP
    POTENTIAL_FILE_NAME  /pc2/groups/hpc-prf-metdyn/metdyn02_Remi/cp2k/cp2k/data/ALL_POTENTIALS 
    CHARGE 0
    &MGRID
      CUTOFF  500
      REL_CUTOFF  100
    &END MGRID
    &POISSON
      PERIODIC NONE
      POISSON_SOLVER WAVELET
    &END POISSON
    &QS
      METHOD GAPW
      EPS_DEFAULT 1.0E-12
      EPS_PGF_ORB 1.0E-12
    &END QS
    &SCF
      SCF_GUESS ATOMIC
      EPS_SCF 1.0E-6
      MAX_SCF 500
      &PRINT
        &RESTART ON
        &END
      &END
      ADDED_MOS -1
      &MIXING
          METHOD BROYDEN_MIXING
          ALPHA 0.1
          BETA 1.5
          NBROYDEN 8
      &END
      CHOLESKY OFF
    &END SCF
    &XC
      &XC_FUNCTIONAL PBE0
      &END XC_FUNCTIONAL
      &HF
         &MEMORY
          MAX_MEMORY 64000
         &END MEMORY
      &END HF
      &WF_CORRELATION
      	&RI_RPA
	  QUADRATURE_POINTS 100
      	  &GW
	    CORR_MOS_OCC -1
	    CORR_MOS_VIRT -1
	    &BSE
              BSE_DIAG_METHOD FULLDIAG
              TDA OFF
            &END BSE 
          &END GW	
        &END RI_RPA
      &END WF_CORRELATION
    &END XC
    &PRINT
    &OVERLAP_CONDITION ON
    DIAGONALIZATION T
    &END OVERLAP_CONDITION
    &END PRINT
  &END DFT
    &SUBSYS
    &CELL
      ABC                 30 30 30
      ALPHA_BETA_GAMMA    90 90 90
      PERIODIC NONE
    &END CELL

     &KIND O
      BASIS_SET ORB aug-TZVP-MOLOPT-ae
      BASIS_SET RI_AUX RI_aug-TZVP-MOLOPT-ae_N_RI_084_s_p_d_f_g_h_i_7_4_3_3_2_1_0_error_6.7e-05
      POTENTIAL ALL
     &END KIND

     &KIND H
      BASIS_SET ORB aug-TZVP-MOLOPT-ae
      BASIS_SET RI_AUX RI_aug-TZVP-MOLOPT-ae_N_RI_023_s_p_d_f_g_h_i_4_3_2_0_0_0_0_error_4.6e-05
      POTENTIAL ALL
     &END KIND

     &KIND C
      BASIS_SET ORB aug-TZVP-MOLOPT-ae
      BASIS_SET RI_AUX RI_aug-TZVP-MOLOPT-ae_N_RI_073_s_p_d_f_g_h_i_7_4_3_3_2_0_0_error_4.5e-05
      POTENTIAL ALL
     &END KIND

     &KIND N
      BASIS_SET ORB aug-TZVP-MOLOPT-ae
      BASIS_SET RI_AUX RI_aug-TZVP-MOLOPT-ae_N_RI_081_s_p_d_f_g_h_i_7_5_4_3_2_0_0_error_5.6e-05
      POTENTIAL ALL
     &END KIND

     &KIND F
      BASIS_SET ORB aug-TZVP-MOLOPT-ae
      BASIS_SET RI_AUX RI_aug-TZVP-MOLOPT-ae_N_RI_092_s_p_d_f_g_h_i_7_5_4_3_2_1_0_error_2.5e-05
      POTENTIAL ALL
     &END KIND

    




    &TOPOLOGY
     &CENTER_COORDINATES T
     &END CENTER_COORDINATES
    &END TOPOLOGY


    &COORD
     O 40.57059237 43.97644146 42.09326291
     H 40.30719616 43.67660906 42.98504329
     C 42.53521082 43.45782037 37.48005556
     H 41.58552105 42.97736817 37.28077972
     N 43.33935853 43.95270362 36.45876542
     H 43.16540908 43.91580387 35.46209905
     C 42.78741162 43.43679332 40.04750902
     H 43.58231738 42.89517632 40.58283361
     H 41.89712461 42.79225621 40.02375462
     C 43.21242939 43.72131148 38.64728417
     C 44.43115642 44.47627168 37.07019924
     F 45.40001715 45.03109578 36.34650395
     C 41.88447397 44.32565161 42.19157541
     C 42.46202365 44.74334646 40.85032472
     H 41.66896814 45.27104263 40.29607085
     N 43.58476593 45.63861033 41.07557260
     H 44.10496850 45.32107900 41.89576282
     H 44.21611431 45.61267813 40.27238036
     N 44.41630429 44.36996387 38.36549844
     O 42.50545063 44.25921743 43.23132153
&END COORD
  &END SUBSYS
&END FORCE_EVAL
