&GLOBAL
  PROJECT  MoS2
  PRINT_LEVEL MEDIUM
  RUN_TYPE ENERGY
  &TIMINGS
     THRESHOLD 0.0001
  &END
  TRACE
  TRACE_MASTER
  TRACE_ROUTINES compute_chi dbt_create_2c_R dbt_create_3c_R1_R2 dbt_create G_occ_vir contract_M_occ_vir_to_chi local_dbt_to_global_fm
&END GLOBAL
&FORCE_EVAL
  METHOD Quickstep
  !&PROPERTIES
  !&TDDFPT                          ! input section for TDDFPT
  !     KERNEL FULL                       ! specification of the underlying kernel matrix K
  !                                       ! FULL kernel is for GGA and hybrid functional computations
  !                                       ! sTDA kernel is referring to a semi-empirical sTDA computation
  !     NSTATES 20                      ! specifies the number of excited states to be computed
  !     MAX_ITER   100                  ! number of iterations for the Davidson algorithm
  !     CONVERGENCE [eV] 1.0e-6         ! convergence threshold in eV
  !     &XC                            ! If choosing kernel FULL, the underlying functional can be
  !      &XC_FUNCTIONAL PBE0             ! specified by adding an XC section
  !      &END XC_FUNCTIONAL              ! The functional can be chosen independently from the chosen
  !	 &HF
  !        &MEMORY 
  !          MAX_MEMORY 8000
  !	   &END MEMORY
  !	 &END HF
  !     &END XC                        ! GS functional except when choosing ADMM 
  !  &END TDDFPT
  !  &END PROPERTIES
  &DFT
    BASIS_SET_FILE_NAME /scratch/hpc-prf-metdyn/metdyn02_Remi/BASIS_AUG_MOLOPT/BASIS_ALL_MOLOPT_AUG_for_excited_states
    BASIS_SET_FILE_NAME /scratch/hpc-prf-metdyn/metdyn02_Remi/BASIS_AUG_MOLOPT/BASIS_ALL_MOLOPT_AUG_for_excited_states_RI
    BASIS_SET_FILE_NAME /scratch/hpc-prf-metdyn/metdyn02_Remi/BASIS_AUG_MOLOPT/aug-cc-pVZ
    BASIS_SET_FILE_NAME /scratch/hpc-prf-metdyn/metdyn02_Remi/BASIS_AUG_MOLOPT/aug-cc-pVZ-TOTRI
    SORT_BASIS EXP
    POTENTIAL_FILE_NAME  /pc2/groups/hpc-prf-metdyn/metdyn02_Remi/cp2k/cp2k/data/ALL_POTENTIALS 
    CHARGE 0
    &MGRID
      CUTOFF  500
      REL_CUTOFF  100
    &END MGRID
    &POISSON
      PERIODIC NONE
      POISSON_SOLVER WAVELET
    &END POISSON
    &QS
      METHOD GAPW
      EPS_DEFAULT 1.0E-12
      EPS_PGF_ORB 1.0E-12
    &END QS
    &SCF
      SCF_GUESS ATOMIC
      EPS_SCF 1.0E-6
      MAX_SCF 500
      &PRINT
        &RESTART ON
        &END
      &END
      ADDED_MOS -1
      &MIXING
          METHOD BROYDEN_MIXING
          ALPHA 0.1
          BETA 1.5
          NBROYDEN 8
      &END
      CHOLESKY OFF
    &END SCF
    &XC
      &XC_FUNCTIONAL PBE0
      &END XC_FUNCTIONAL
      &HF
         &MEMORY
          MAX_MEMORY 8000
         &END MEMORY
      &END HF
      &WF_CORRELATION
      	&RI_RPA
	  QUADRATURE_POINTS 100
      	  &GW
	    CORR_MOS_OCC -1
	    CORR_MOS_VIRT -1
	    &BSE
              BSE_DIAG_METHOD FULLDIAG
              TDA OFF
            &END BSE 
          &END GW	
        &END RI_RPA
      &END WF_CORRELATION
    &END XC
    &PRINT
    &OVERLAP_CONDITION ON
    DIAGONALIZATION T
    &END OVERLAP_CONDITION
    &END PRINT
  &END DFT
    &SUBSYS
    &CELL
      ABC                 30 30 30
      ALPHA_BETA_GAMMA    90 90 90
      PERIODIC NONE
    &END CELL

     &KIND S
      BASIS_SET ORB aug-SZV-MOLOPT-ae
      BASIS_SET RI_AUX RI_aug-SZV-MOLOPT-ae_N_RI_072_s_p_d_f_g_h_i_7_6_3_2_2_0_0_error_1.9e-04
      POTENTIAL ALL
     &END KIND

     &KIND C
      BASIS_SET ORB aug-SZV-MOLOPT-ae-SR
      BASIS_SET RI_AUX RI_aug-SZV-MOLOPT-ae-SR_N_RI_045_s_p_d_f_g_h_i_6_5_2_2_0_0_0_error_3.3e-05
      POTENTIAL ALL
     &END KIND

     &KIND H
      BASIS_SET ORB aug-SZV-MOLOPT-ae-SR
      BASIS_SET RI_AUX RI_aug-SZV-MOLOPT-ae-SR_N_RI_011_s_p_d_f_g_h_i_5_2_0_0_0_0_0_error_1.3e-06
      POTENTIAL ALL
     &END KIND

     &KIND N
      BASIS_SET ORB aug-SZV-MOLOPT-ae-SR
      BASIS_SET RI_AUX RI_aug-SZV-MOLOPT-ae-SR_N_RI_036_s_p_d_f_g_h_i_5_3_3_1_0_0_0_error_7.1e-05
      POTENTIAL ALL
     &END KIND

    




    &TOPOLOGY
     &CENTER_COORDINATES T
     &END CENTER_COORDINATES
    &END TOPOLOGY


    &COORD
     S 19.78322053 23.71321782 20.37843726
     C 23.24006692 22.49217844 20.99577912
     H 24.31554095 22.29335840 20.98912902
     H 22.85291487 22.51171548 19.96949983
     S 20.08892402 22.63765621 23.25880664
     N 23.00674353 23.77683409 21.63931253
     N 21.95657688 25.46208223 22.53418110
     C 20.50462512 23.49787311 21.87867730
     C 23.95518555 24.74345970 21.92520346
     C 23.29904895 25.79566529 22.48813690
     C 21.78307311 24.22307844 22.01339758
     C 20.87807377 26.26772072 23.08800485
     H 23.66872495 26.74302275 22.85614747
     H 22.72321734 21.70693234 21.55900198
     H 21.24982419 27.28214228 23.25791912
     H 20.53058643 25.82962625 24.03180247
     H 20.04466657 26.29437251 22.37683999
     H 25.00463971 24.60143954 21.70599541
&END COORD
  &END SUBSYS
&END FORCE_EVAL
