&GLOBAL
  PROJECT  MoS2
  PRINT_LEVEL MEDIUM
  RUN_TYPE ENERGY
  &TIMINGS
     THRESHOLD 0.0001
  &END
  TRACE
  TRACE_MASTER
  TRACE_ROUTINES compute_chi dbt_create_2c_R dbt_create_3c_R1_R2 dbt_create G_occ_vir contract_M_occ_vir_to_chi local_dbt_to_global_fm
&END GLOBAL
&FORCE_EVAL
  METHOD Quickstep
  !&PROPERTIES
  !&TDDFPT                          ! input section for TDDFPT
  !     KERNEL FULL                       ! specification of the underlying kernel matrix K
  !                                       ! FULL kernel is for GGA and hybrid functional computations
  !                                       ! sTDA kernel is referring to a semi-empirical sTDA computation
  !     NSTATES 20                      ! specifies the number of excited states to be computed
  !     MAX_ITER   100                  ! number of iterations for the Davidson algorithm
  !     CONVERGENCE [eV] 1.0e-6         ! convergence threshold in eV
  !     &XC                            ! If choosing kernel FULL, the underlying functional can be
  !      &XC_FUNCTIONAL PBE0             ! specified by adding an XC section
  !      &END XC_FUNCTIONAL              ! The functional can be chosen independently from the chosen
  !	 &HF
  !        &MEMORY 
  !          MAX_MEMORY 8000
  !	   &END MEMORY
  !	 &END HF
  !     &END XC                        ! GS functional except when choosing ADMM 
  !  &END TDDFPT
  !  &END PROPERTIES
  &DFT
    BASIS_SET_FILE_NAME /scratch/hpc-prf-metdyn/metdyn02_Remi/BASIS_AUG_MOLOPT/BASIS_ALL_MOLOPT_AUG_for_excited_states
    BASIS_SET_FILE_NAME /scratch/hpc-prf-metdyn/metdyn02_Remi/BASIS_AUG_MOLOPT/BASIS_ALL_MOLOPT_AUG_for_excited_states_RI
    BASIS_SET_FILE_NAME /scratch/hpc-prf-metdyn/metdyn02_Remi/BASIS_AUG_MOLOPT/aug-cc-pVZ
    BASIS_SET_FILE_NAME /scratch/hpc-prf-metdyn/metdyn02_Remi/BASIS_AUG_MOLOPT/aug-cc-pVZ-TOTRI
    SORT_BASIS EXP
    POTENTIAL_FILE_NAME  /pc2/groups/hpc-prf-metdyn/metdyn02_Remi/cp2k/cp2k/data/ALL_POTENTIALS 
    CHARGE 0
    &MGRID
      CUTOFF  500
      REL_CUTOFF  100
    &END MGRID
    &POISSON
      PERIODIC NONE
      POISSON_SOLVER WAVELET
    &END POISSON
    &QS
      METHOD GAPW
      EPS_DEFAULT 1.0E-12
      EPS_PGF_ORB 1.0E-12
    &END QS
    &SCF
      SCF_GUESS ATOMIC
      EPS_SCF 1.0E-6
      MAX_SCF 500
      &PRINT
        &RESTART ON
        &END
      &END
      ADDED_MOS -1
      &MIXING
          METHOD BROYDEN_MIXING
          ALPHA 0.1
          BETA 1.5
          NBROYDEN 8
      &END
      CHOLESKY OFF
    &END SCF
    &XC
      &XC_FUNCTIONAL PBE0
      &END XC_FUNCTIONAL
      &HF
         &MEMORY
          MAX_MEMORY 64000
         &END MEMORY
      &END HF
      &WF_CORRELATION
      	&RI_RPA
	  QUADRATURE_POINTS 100
      	  &GW
	    CORR_MOS_OCC -1
	    CORR_MOS_VIRT -1
	    &BSE
              BSE_DIAG_METHOD FULLDIAG
              TDA OFF
            &END BSE 
          &END GW	
        &END RI_RPA
      &END WF_CORRELATION
    &END XC
    &PRINT
    &OVERLAP_CONDITION ON
    DIAGONALIZATION T
    &END OVERLAP_CONDITION
    &END PRINT
  &END DFT
    &SUBSYS
    &CELL
      ABC                 30 30 30
      ALPHA_BETA_GAMMA    90 90 90
      PERIODIC NONE
    &END CELL

     &KIND S
      BASIS_SET ORB aug-SZV-MOLOPT-ae
      BASIS_SET RI_AUX RI_aug-SZV-MOLOPT-ae_N_RI_072_s_p_d_f_g_h_i_7_6_3_2_2_0_0_error_1.9e-04
      POTENTIAL ALL
     &END KIND

     &KIND O
      BASIS_SET ORB aug-SZV-MOLOPT-ae
      BASIS_SET RI_AUX RI_aug-SZV-MOLOPT-ae_N_RI_054_s_p_d_f_g_h_i_7_6_3_2_0_0_0_error_5.3e-05
      POTENTIAL ALL
     &END KIND

     &KIND N
      BASIS_SET ORB aug-SZV-MOLOPT-ae
      BASIS_SET RI_AUX RI_aug-SZV-MOLOPT-ae_N_RI_043_s_p_d_f_g_h_i_6_5_3_1_0_0_0_error_2.2e-05
      POTENTIAL ALL
     &END KIND

     &KIND C
      BASIS_SET ORB aug-SZV-MOLOPT-ae
      BASIS_SET RI_AUX RI_aug-SZV-MOLOPT-ae_N_RI_048_s_p_d_f_g_h_i_6_3_2_2_1_0_0_error_8.4e-05
      POTENTIAL ALL
     &END KIND

     &KIND H
      BASIS_SET ORB aug-SZV-MOLOPT-ae
      BASIS_SET RI_AUX RI_aug-SZV-MOLOPT-ae_N_RI_007_s_p_d_f_g_h_i_4_1_0_0_0_0_0_error_4.4e-05
      POTENTIAL ALL
     &END KIND

    




    &TOPOLOGY
     &CENTER_COORDINATES T
     &END CENTER_COORDINATES
    &END TOPOLOGY


    &COORD
     S 31.62943815 26.10420609 29.24588862
     O 28.38590709 28.79187482 28.59253523
     O 33.01346605 25.69268031 29.16989616
     O 30.69436604 25.86532592 28.17422474
     N 29.13799640 28.21130264 29.36566791
     C 30.52283093 28.73027522 29.47570215
     O 28.81571883 27.27228878 30.10069447
     N 31.01996085 25.40163226 30.60914149
     H 30.08735729 25.75615963 30.83229715
     H 31.67203204 25.43837801 31.39094583
     C 31.65232026 27.89841029 29.51579653
     C 32.90629133 28.49675101 29.65789460
     H 33.78466802 27.85386696 29.64519763
     C 30.63920007 30.11519524 29.56653381
     H 29.73835223 30.72307116 29.50888650
     C 31.89592183 30.69146030 29.73524871
     H 31.98494164 31.77339000 29.82182712
     C 33.02922771 29.88088299 29.78149138
     H 34.01744869 30.32401222 29.89794836
&END COORD
  &END SUBSYS
&END FORCE_EVAL
