SIRIUS 7.7.0, git hash: https://api.github.com/repos/electronic-structure/SIRIUS/git/ref/tags/v7.7.0
 DBCSR| CPU Multiplication driver                                           BLAS (U)
 DBCSR| Multrec recursion limit                                              512 (U)
 DBCSR| Multiplication stack size                                           1000 (D)
 DBCSR| Maximum elements for images                                    UNLIMITED (U)
 DBCSR| Multiplicative factor virtual images                                   1 (U)
 DBCSR| Use multiplication densification                                       T (D)
 DBCSR| Multiplication size stacks                                             3 (U)
 DBCSR| Use memory pool for CPU allocation                                     F (U)
 DBCSR| Number of 3D layers                                               SINGLE (U)
 DBCSR| Use MPI memory allocation                                              F (U)
 DBCSR| Use RMA algorithm                                                      F (U)
 DBCSR| Use Communication thread                                               T (U)
 DBCSR| Communication thread load                                             75 (D)
 DBCSR| MPI: My process id                                                     0
 DBCSR| MPI: Number of processes                                             192
 DBCSR| OMP: Current number of threads                                         4
 DBCSR| OMP: Max number of threads                                             4
 DBCSR| Split modifier for TAS multiplication algorithm                  1.0E+00 (U)


  **** **** ******  **  PROGRAM STARTED AT               2025-10-25 03:15:57.126
 ***** ** ***  *** **   PROGRAM STARTED ON                                cn1302
 **    ****   ******    PROGRAM STARTED BY                              metdyn02
 ***** **    ** ** **   PROGRAM PROCESS ID                               2088150
  **** **  *******  **  PROGRAM STARTED IN /scratch/hpc-prf-metdyn/metdyn02_Remi
                                           /04_mol/Benchmark_mol_low_scal/aUKBqs
                                           EOTmq69kFe5R_nOg/5k_set_final_qzvp/ET
                                           OLAA/DZVP/1e-4/7.0

 CP2K| version string:                 CP2K version 2025.2 (Development Version)
 CP2K| source code revision number:                                  git:2a4e9c4
 CP2K| cp2kflags: omp libint fftw3 libxc libgrpp elpa parallel scalapack mpi_f08
 CP2K|             cosma xsmm plumed2 spglib sirius libvori libbqb libvdwxc hdf5
 CP2K| is freely available from                            https://www.cp2k.org/
 CP2K| Program compiled at                      Fri Oct 24 04:52:17 PM CEST 2025
 CP2K| Program compiled on                                                login1
 CP2K| Program compiled for                                                local
 CP2K| Data directory path    /opt/software/pc2/EB-SW/software/CP2K/2025.2-foss-
 CP2K| Input file name                                                    GW.inp

 GLOBAL| Force Environment number                                              1
 GLOBAL| Basis set file name            /pc2/groups/hpc-prf-metdyn/metdyn02_Remi
 GLOBAL| Potential file name            /pc2/groups/hpc-prf-metdyn/metdyn02_Remi
 GLOBAL| MM Potential file name                                     MM_POTENTIAL
 GLOBAL| Coordinate file name                                      __STD_INPUT__
 GLOBAL| Method name                                                        CP2K
 GLOBAL| Project name                                                       MoS2
 GLOBAL| Run type                                                         ENERGY
 GLOBAL| FFT library                                                       FFTW3
 GLOBAL| Diagonalization library                                            ELPA
 GLOBAL| Cholesky decomposition library                                ScaLAPACK
 GLOBAL| DGEMM library                                                      BLAS
 GLOBAL| Minimum number of eigenvectors for ELPA usage                        16
 GLOBAL| Orthonormality check for eigenvectors                          DISABLED
 GLOBAL| Matrix multiplication library                                     COSMA
 GLOBAL| All-to-all communication in single precision                          F
 GLOBAL| FFTs using library dependent lengths                                  F
 GLOBAL| Grid backend                                                       AUTO
 GLOBAL| Global print level                                               MEDIUM
 GLOBAL| MPI I/O enabled                                                       T
 GLOBAL| Total number of message passing processes                           192
 GLOBAL| Number of distributed systems (nodes)                                 4
 GLOBAL| Number of threads for this process                                    4
 GLOBAL| This output is from process                                           0
 GLOBAL| OpenMP stack size per thread (OMP_STACKSIZE)                    default
 GLOBAL| CPU model name                          AMD EPYC 9655 96-Core Processor
 GLOBAL| CPUID                                                              1003

 MEMORY| system memory details [Kb]
 MEMORY|                        rank 0           min           max       average
 MEMORY| MemTotal            791039084     791039048     791039104     791039073
 MEMORY| MemFree             744261016     744261016     752731976     749173243
 MEMORY| Buffers                  1352          1352          3168          2451
 MEMORY| Cached                4113024       4113024       8229456       7042421
 MEMORY| Slab                  6268284       1618256       6268284       3068091
 MEMORY| SReclaimable           801260        481100        950120        786231
 MEMORY| MemLikelyFree       749176652     749176652     760913140     757004346


 *** Fundamental physical constants (SI units) ***

 *** Literature: B. J. Mohr and B. N. Taylor,
 ***             CODATA recommended values of the fundamental physical
 ***             constants: 2006, Web Version 5.1
 ***             http://physics.nist.gov/constants

 Speed of light in vacuum [m/s]                             2.99792458000000E+08
 Magnetic constant or permeability of vacuum [N/A**2]       1.25663706143592E-06
 Electric constant or permittivity of vacuum [F/m]          8.85418781762039E-12
 Planck constant (h) [J*s]                                  6.62606896000000E-34
 Planck constant (h-bar) [J*s]                              1.05457162825177E-34
 Elementary charge [C]                                      1.60217648700000E-19
 Electron mass [kg]                                         9.10938215000000E-31
 Electron g factor [ ]                                     -2.00231930436220E+00
 Proton mass [kg]                                           1.67262163700000E-27
 Fine-structure constant                                    7.29735253760000E-03
 Rydberg constant [1/m]                                     1.09737315685270E+07
 Avogadro constant [1/mol]                                  6.02214179000000E+23
 Boltzmann constant [J/K]                                   1.38065040000000E-23
 Atomic mass unit [kg]                                      1.66053878200000E-27
 Bohr radius [m]                                            5.29177208590000E-11

 *** Conversion factors ***

 [u] -> [a.u.]                                              1.82288848426455E+03
 [Angstrom] -> [Bohr] = [a.u.]                              1.88972613288564E+00
 [a.u.] = [Bohr] -> [Angstrom]                              5.29177208590000E-01
 [a.u.] -> [s]                                              2.41888432650478E-17
 [a.u.] -> [fs]                                             2.41888432650478E-02
 [a.u.] -> [J]                                              4.35974393937059E-18
 [a.u.] -> [N]                                              8.23872205491840E-08
 [a.u.] -> [K]                                              3.15774647902944E+05
 [a.u.] -> [kJ/mol]                                         2.62549961709828E+03
 [a.u.] -> [kcal/mol]                                       6.27509468713739E+02
 [a.u.] -> [Pa]                                             2.94210107994716E+13
 [a.u.] -> [bar]                                            2.94210107994716E+08
 [a.u.] -> [atm]                                            2.90362800883016E+08
 [a.u.] -> [eV]                                             2.72113838565563E+01
 [a.u.] -> [Hz]                                             6.57968392072181E+15
 [a.u.] -> [1/cm] (wave numbers)                            2.19474631370540E+05
 [a.u./Bohr**2] -> [1/cm]                                   5.14048714338585E+03
 

 CELL_TOP| Volume [angstrom^3]:                                     27000.000000
 CELL_TOP| Vector a [angstrom    30.000     0.000     0.000   |a| =    30.000000
 CELL_TOP| Vector b [angstrom     0.000    30.000     0.000   |b| =    30.000000
 CELL_TOP| Vector c [angstrom     0.000     0.000    30.000   |c| =    30.000000
 CELL_TOP| Angle (b,c), alpha [degree]:                                90.000000
 CELL_TOP| Angle (a,c), beta  [degree]:                                90.000000
 CELL_TOP| Angle (a,b), gamma [degree]:                                90.000000
 CELL_TOP| Numerically orthorhombic:                                         YES
 CELL_TOP| Periodicity                                                      NONE

 GENERATE|  Preliminary Number of Bonds generated:                             0
 GENERATE|  Achieved consistency in connectivity generation.

 CELL| Volume [angstrom^3]:                                         27000.000000
 CELL| Vector a [angstrom]:      30.000     0.000     0.000   |a| =    30.000000
 CELL| Vector b [angstrom]:       0.000    30.000     0.000   |b| =    30.000000
 CELL| Vector c [angstrom]:       0.000     0.000    30.000   |c| =    30.000000
 CELL| Angle (b,c), alpha [degree]:                                    90.000000
 CELL| Angle (a,c), beta  [degree]:                                    90.000000
 CELL| Angle (a,b), gamma [degree]:                                    90.000000
 CELL| Numerically orthorhombic:                                             YES
 CELL| Periodicity                                                          NONE

 CELL_REF| Volume [angstrom^3]:                                     27000.000000
 CELL_REF| Vector a [angstrom    30.000     0.000     0.000   |a| =    30.000000
 CELL_REF| Vector b [angstrom     0.000    30.000     0.000   |b| =    30.000000
 CELL_REF| Vector c [angstrom     0.000     0.000    30.000   |c| =    30.000000
 CELL_REF| Angle (b,c), alpha [degree]:                                90.000000
 CELL_REF| Angle (a,c), beta  [degree]:                                90.000000
 CELL_REF| Angle (a,b), gamma [degree]:                                90.000000
 CELL_REF| Numerically orthorhombic:                                         YES
 CELL_REF| Periodicity                                                      NONE

 *******************************************************************************
 *******************************************************************************
 **                                                                           **
 **     #####                         ##              ##                      **
 **    ##   ##            ##          ##              ##                      **
 **   ##     ##                       ##            ######                    **
 **   ##     ##  ##   ##  ##   #####  ##  ##   ####   ##    #####    #####    **
 **   ##     ##  ##   ##  ##  ##      ## ##   ##      ##   ##   ##  ##   ##   **
 **   ##  ## ##  ##   ##  ##  ##      ####     ###    ##   ######   ######    **
 **    ##  ###   ##   ##  ##  ##      ## ##      ##   ##   ##       ##        **
 **     #######   #####   ##   #####  ##  ##  ####    ##    #####   ##        **
 **           ##                                                    ##        **
 **                                                                           **
 **                                                ... make the atoms dance   **
 **                                                                           **
 **            Copyright (C) by CP2K developers group (2000-2025)             **
 **                      J. Chem. Phys. 152, 194103 (2020)                    **
 **                                                                           **
 *******************************************************************************

 DFT| Spin restricted Kohn-Sham (RKS) calculation                            RKS
 DFT| Multiplicity                                                             1
 DFT| Number of spin states                                                    1
 DFT| Charge                                                                   0
 DFT| Self-interaction correction (SIC)                                       NO
 DFT| Cutoffs: density                                              1.000000E-10
 DFT|          gradient                                             1.000000E-10
 DFT|          tau                                                  1.000000E-10
 DFT|          cutoff_smoothing_range                               0.000000E+00
 DFT| XC density smoothing                                                  NONE
 DFT| XC derivatives                                                          PW

 FUNCTIONAL| PBE:
 FUNCTIONAL| J.P.Perdew, K.Burke, M.Ernzerhof, Phys. Rev. Letter, vol. 77, n 18,
 FUNCTIONAL|  pp. 3865-3868, (1996)sx=0.750sc=1.000{spin unpolarized}           


 QS| Method:                                                                GAPW
 QS| Density plane wave grid type                        NON-SPHERICAL FULLSPACE
 QS| Number of grid levels:                                                    4
 QS| Density cutoff [a.u.]:                                                250.0
 QS| Multi grid cutoff [a.u.]: 1) grid level                               250.0
 QS|                           2) grid level                                83.3
 QS|                           3) grid level                                27.8
 QS|                           4) grid level                                 9.3
 QS| Grid level progression factor:                                          3.0
 QS| Relative density cutoff [a.u.]:                                        50.0
 QS| Interaction thresholds: eps_pgf_orb:                                1.0E-12
 QS|                         eps_filter_matrix:                          0.0E+00
 QS|                         eps_core_charge:                            1.0E-14
 QS|                         eps_rho_gspace:                             1.0E-12
 QS|                         eps_rho_rspace:                             1.0E-12
 QS|                         eps_gvg_rspace:                             1.0E-06
 QS|                         eps_ppl:                                    1.0E-02
 QS|                         eps_ppnl:                                   1.0E-08
 QS| GAPW|      One center basis from orbital basis primitives
 QS| GAPW|                   eps_fit:                                    1.0E-04
 QS| GAPW|                   eps_iso:                                    1.0E-12
 QS| GAPW|                   eps_svd:                                    1.0E-08
 QS| GAPW|                   eps_cpc:                                    1.0E-12
 QS| GAPW|   atom-r-grid: quadrature:                                     GC_LOG
 QS| GAPW|      atom-s-grid:  max l :                                          6
 QS| GAPW|      max_l_rho0 :                                                   2


 ATOMIC KIND INFORMATION

  1. Atomic kind: H                                     Number of atoms:       7

     Orbital Basis Set                                        aug-DZVP-MOLOPT-ae

       Number of orbital shell sets:                                           1
       Number of orbital shells:                                               5
       Number of primitive Cartesian functions:                                5
       Number of Cartesian basis functions:                                    9
       Number of spherical basis functions:                                    9
       Norm type:                                                              2

       Normalised Cartesian orbitals:

                        Set   Shell   Orbital            Exponent    Coefficient

                          1       1    2s                0.035000       0.000000
                                                         0.111920       0.009149
                                                         0.374948       0.205449
                                                         1.446686       0.373852
                                                        12.248855       0.310040

                          1       2    3s                0.035000       0.000000
                                                         0.111920       0.143650
                                                         0.374948       0.007287
                                                         1.446686      -0.188851
                                                        12.248855      -0.144753

                          1       3    4s                0.035000       0.090463
                                                         0.111920      -0.203934
                                                         0.374948      -0.000376
                                                         1.446686      -0.000051
                                                        12.248855       0.000000

                          1       4    3px               0.035000       0.000000
                                                         0.111920       0.007225
                                                         0.374948       0.280770
                                                         1.446686       0.896497
                                                        12.248855      -0.764411
                          1       4    3py               0.035000       0.000000
                                                         0.111920       0.007225
                                                         0.374948       0.280770
                                                         1.446686       0.896497
                                                        12.248855      -0.764411
                          1       4    3pz               0.035000       0.000000
                                                         0.111920       0.007225
                                                         0.374948       0.280770
                                                         1.446686       0.896497
                                                        12.248855      -0.764411

                          1       5    4px               0.035000       0.011331
                                                         0.111920       0.048737
                                                         0.374948       0.028490
                                                         1.446686       0.035587
                                                        12.248855       0.000000
                          1       5    4py               0.035000       0.011331
                                                         0.111920       0.048737
                                                         0.374948       0.028490
                                                         1.446686       0.035587
                                                        12.248855       0.000000
                          1       5    4pz               0.035000       0.011331
                                                         0.111920       0.048737
                                                         0.374948       0.028490
                                                         1.446686       0.035587
                                                        12.248855       0.000000

     RI Auxiliary Basis Set             RI_aug-DZVP-MOLOPT-ae_N_RI_009_s_p_d_f_g

       Number of orbital shell sets:                                           5
       Number of orbital shells:                                               5
       Number of primitive Cartesian functions:                                5
       Number of Cartesian basis functions:                                    9
       Number of spherical basis functions:                                    9
       Norm type:                                                              2

       Normalised Cartesian orbitals:

                        Set   Shell   Orbital            Exponent    Coefficient

                          1       1    4px               0.330315       0.356944
                          1       1    4py               0.330315       0.356944
                          1       1    4pz               0.330315       0.356944

                          2       1    1s                0.373568       0.340555

                          3       1    2s                0.886477       0.651119

                          4       1    5px               1.451319       2.270616
                          4       1    5py               1.451319       2.270616
                          4       1    5pz               1.451319       2.270616

                          5       1    3s                5.028848       2.393379

       Atomic covalent radius [Angstrom]:                                  0.320

       Atomic van der Waals radius [Angstrom]:                             1.090

     The atoms of this atomic kind are PAW atoms (GAPW):
       Hard Gaussian function radius:                                      1.200
       Rho0 radius:                                                        1.200
       Maximum GTO radius used for PAW projector construction:            24.566

     GAPW Soft Basis Set                                 aug-DZVP-MOLOPT-ae_soft

       Number of orbital shell sets:                                           1
       Number of orbital shells:                                               5
       Number of primitive Cartesian functions:                                4
       Number of Cartesian basis functions:                                    9
       Number of spherical basis functions:                                    9
       Norm type:                                                              2

       Normalised Cartesian orbitals:

                        Set   Shell   Orbital            Exponent    Coefficient

                          1       1    2s                0.035000       0.000000
                                                         0.111920       0.009149
                                                         0.374948       0.205449
                                                         1.446686       0.373852

                          1       2    3s                0.035000       0.000000
                                                         0.111920       0.143650
                                                         0.374948       0.007287
                                                         1.446686      -0.188851

                          1       3    4s                0.035000       0.090463
                                                         0.111920      -0.203934
                                                         0.374948      -0.000376
                                                         1.446686      -0.000051

                          1       4    3px               0.035000       0.000000
                                                         0.111920       0.007225
                                                         0.374948       0.280770
                                                         1.446686       0.896497
                          1       4    3py               0.035000       0.000000
                                                         0.111920       0.007225
                                                         0.374948       0.280770
                                                         1.446686       0.896497
                          1       4    3pz               0.035000       0.000000
                                                         0.111920       0.007225
                                                         0.374948       0.280770
                                                         1.446686       0.896497

                          1       5    4px               0.035000       0.011331
                                                         0.111920       0.048737
                                                         0.374948       0.028490
                                                         1.446686       0.035587
                          1       5    4py               0.035000       0.011331
                                                         0.111920       0.048737
                                                         0.374948       0.028490
                                                         1.446686       0.035587
                          1       5    4pz               0.035000       0.011331
                                                         0.111920       0.048737
                                                         0.374948       0.028490
                                                         1.446686       0.035587

     AE Potential information for                                            ALL

       Description:                                       All-electron potential
                                          Krack, Parrinello, PCCP 2, 2105 (2000)

       Gaussian exponent of the core charge distribution:              12.500000
       Electronic configuration (s p d ...):                           1   0   0

  2. Atomic kind: B                                     Number of atoms:       1

     Orbital Basis Set                                        aug-DZVP-MOLOPT-ae

       Number of orbital shell sets:                                           2
       Number of orbital shells:                                              10
       Number of primitive Cartesian functions:                               12
       Number of Cartesian basis functions:                                   35
       Number of spherical basis functions:                                   30
       Norm type:                                                              2

       Normalised Cartesian orbitals:

                        Set   Shell   Orbital            Exponent    Coefficient

                          1       1    2s                0.082134       0.085473
                                                         0.140000       0.049675
                                                         0.279625      -0.030750
                                                         0.881274       0.022030
                                                         4.510873       0.000000

                          1       2    3px               0.082134      -0.004879
                                                         0.140000       0.000000
                                                         0.279625      -0.151722
                                                         0.881274      -0.583957
                                                         4.510873      -1.036243
                          1       2    3py               0.082134      -0.004879
                                                         0.140000       0.000000
                                                         0.279625      -0.151722
                                                         0.881274      -0.583957
                                                         4.510873      -1.036243
                          1       2    3pz               0.082134      -0.004879
                                                         0.140000       0.000000
                                                         0.279625      -0.151722
                                                         0.881274      -0.583957
                                                         4.510873      -1.036243

                          1       3    4px               0.082134       0.052233
                                                         0.140000       0.000000
                                                         0.279625       0.094300
                                                         0.881274      -0.581323
                                                         4.510873      -0.510604
                          1       3    4py               0.082134       0.052233
                                                         0.140000       0.000000
                                                         0.279625       0.094300
                                                         0.881274      -0.581323
                                                         4.510873      -0.510604
                          1       3    4pz               0.082134       0.052233
                                                         0.140000       0.000000
                                                         0.279625       0.094300
                                                         0.881274      -0.581323
                                                         4.510873      -0.510604

                          1       4    5px               0.082134       0.024659
                                                         0.140000       0.076570
                                                         0.279625      -0.053289
                                                         0.881274       0.410720
                                                         4.510873       0.000000
                          1       4    5py               0.082134       0.024659
                                                         0.140000       0.076570
                                                         0.279625      -0.053289
                                                         0.881274       0.410720
                                                         4.510873       0.000000
                          1       4    5pz               0.082134       0.024659
                                                         0.140000       0.076570
                                                         0.279625      -0.053289
                                                         0.881274       0.410720
                                                         4.510873       0.000000

                          1       5    4dx2              0.082134       0.000404
                                                         0.140000       0.000000
                                                         0.279625       0.111576
                                                         0.881274       0.641739
                                                         4.510873      -0.272354
                          1       5    4dxy              0.082134       0.000700
                                                         0.140000       0.000000
                                                         0.279625       0.193255
                                                         0.881274       1.111524
                                                         4.510873      -0.471731
                          1       5    4dxz              0.082134       0.000700
                                                         0.140000       0.000000
                                                         0.279625       0.193255
                                                         0.881274       1.111524
                                                         4.510873      -0.471731
                          1       5    4dy2              0.082134       0.000404
                                                         0.140000       0.000000
                                                         0.279625       0.111576
                                                         0.881274       0.641739
                                                         4.510873      -0.272354
                          1       5    4dyz              0.082134       0.000700
                                                         0.140000       0.000000
                                                         0.279625       0.193255
                                                         0.881274       1.111524
                                                         4.510873      -0.471731
                          1       5    4dz2              0.082134       0.000404
                                                         0.140000       0.000000
                                                         0.279625       0.111576
                                                         0.881274       0.641739
                                                         4.510873      -0.272354

                          1       6    5dx2              0.082134       0.036596
                                                         0.140000      -0.054919
                                                         0.279625      -0.008802
                                                         0.881274      -0.232953
                                                         4.510873       0.000000
                          1       6    5dxy              0.082134       0.063387
                                                         0.140000      -0.095122
                                                         0.279625      -0.015246
                                                         0.881274      -0.403486
                                                         4.510873       0.000000
                          1       6    5dxz              0.082134       0.063387
                                                         0.140000      -0.095122
                                                         0.279625      -0.015246
                                                         0.881274      -0.403486
                                                         4.510873       0.000000
                          1       6    5dy2              0.082134       0.036596
                                                         0.140000      -0.054919
                                                         0.279625      -0.008802
                                                         0.881274      -0.232953
                                                         4.510873       0.000000
                          1       6    5dyz              0.082134       0.063387
                                                         0.140000      -0.095122
                                                         0.279625      -0.015246
                                                         0.881274      -0.403486
                                                         4.510873       0.000000
                          1       6    5dz2              0.082134       0.036596
                                                         0.140000      -0.054919
                                                         0.279625      -0.008802
                                                         0.881274      -0.232953
                                                         4.510873       0.000000

                          1       7    5fx3              0.082134      -0.000468
                                                         0.140000       0.012301
                                                         0.279625       0.033988
                                                         0.881274       0.068820
                                                         4.510873       0.000000
                          1       7    5fx2y             0.082134      -0.001048
                                                         0.140000       0.027506
                                                         0.279625       0.075998
                                                         0.881274       0.153886
                                                         4.510873       0.000000
                          1       7    5fx2z             0.082134      -0.001048
                                                         0.140000       0.027506
                                                         0.279625       0.075998
                                                         0.881274       0.153886
                                                         4.510873       0.000000
                          1       7    5fxy2             0.082134      -0.001048
                                                         0.140000       0.027506
                                                         0.279625       0.075998
                                                         0.881274       0.153886
                                                         4.510873       0.000000
                          1       7    5fxyz             0.082134      -0.001814
                                                         0.140000       0.047643
                                                         0.279625       0.131633
                                                         0.881274       0.266539
                                                         4.510873       0.000000
                          1       7    5fxz2             0.082134      -0.001048
                                                         0.140000       0.027506
                                                         0.279625       0.075998
                                                         0.881274       0.153886
                                                         4.510873       0.000000
                          1       7    5fy3              0.082134      -0.000468
                                                         0.140000       0.012301
                                                         0.279625       0.033988
                                                         0.881274       0.068820
                                                         4.510873       0.000000
                          1       7    5fy2z             0.082134      -0.001048
                                                         0.140000       0.027506
                                                         0.279625       0.075998
                                                         0.881274       0.153886
                                                         4.510873       0.000000
                          1       7    5fyz2             0.082134      -0.001048
                                                         0.140000       0.027506
                                                         0.279625       0.075998
                                                         0.881274       0.153886
                                                         4.510873       0.000000
                          1       7    5fz3              0.082134      -0.000468
                                                         0.140000       0.012301
                                                         0.279625       0.033988
                                                         0.881274       0.068820
                                                         4.510873       0.000000

                          2       1    1s              839.324562      -0.573042
                                                       126.174643      -1.097170
                                                        28.339532      -1.625259
                                                         7.329111      -1.470436
                                                         2.208031      -0.468381
                                                         0.410209      -0.026981
                                                         0.151694      -0.023850

                          2       2    2s              839.324562       0.050684
                                                       126.174643      -0.115654
                                                        28.339532      -0.168560
                                                         7.329111      -0.289389
                                                         2.208031      -0.246292
                                                         0.410209       0.238157
                                                         0.151694       0.084355

                          2       3    3s              839.324562      -2.590681
                                                       126.174643       0.127370
                                                        28.339532      -1.260776
                                                         7.329111      -0.567183
                                                         2.208031      -0.073452
                                                         0.410209      -0.458063
                                                         0.151694       0.280188

     RI Auxiliary Basis Set             RI_aug-DZVP-MOLOPT-ae_N_RI_035_s_p_d_f_g

       Number of orbital shell sets:                                          13
       Number of orbital shells:                                              13
       Number of primitive Cartesian functions:                               13
       Number of Cartesian basis functions:                                   40
       Number of spherical basis functions:                                   35
       Norm type:                                                              2

       Normalised Cartesian orbitals:

                        Set   Shell   Orbital            Exponent    Coefficient

                          1       1    1s                0.155297       0.176312

                          2       1   11dx2              0.191101       0.090912
                          2       1   11dxy              0.191101       0.157464
                          2       1   11dxz              0.191101       0.157464
                          2       1   11dy2              0.191101       0.090912
                          2       1   11dyz              0.191101       0.157464
                          2       1   11dz2              0.191101       0.090912

                          3       1    7px               0.280108       0.290467
                          3       1    7py               0.280108       0.290467
                          3       1    7pz               0.280108       0.290467

                          4       1    2s                0.348203       0.323061

                          5       1   13fx3              0.401700       0.189118
                          5       1   13fx2y             0.401700       0.422882
                          5       1   13fx2z             0.401700       0.422882
                          5       1   13fxy2             0.401700       0.422882
                          5       1   13fxyz             0.401700       0.732452
                          5       1   13fxz2             0.401700       0.422882
                          5       1   13fy3              0.401700       0.189118
                          5       1   13fy2z             0.401700       0.422882
                          5       1   13fyz2             0.401700       0.422882
                          5       1   13fz3              0.401700       0.189118

                          6       1    8px               0.444336       0.517106
                          6       1    8py               0.444336       0.517106
                          6       1    8pz               0.444336       0.517106

                          7       1   12dx2              0.761687       1.022158
                          7       1   12dxy              0.761687       1.770430
                          7       1   12dxz              0.761687       1.770430
                          7       1   12dy2              0.761687       1.022158
                          7       1   12dyz              0.761687       1.770430
                          7       1   12dz2              0.761687       1.022158

                          8       1    3s                1.114597       0.773123

                          9       1    9px               1.400889       2.172425
                          9       1    9py               1.400889       2.172425
                          9       1    9pz               1.400889       2.172425

                         10       1    4s                3.952925       1.998016

                         11       1   10px               6.658811      15.247055
                         11       1   10py               6.658811      15.247055
                         11       1   10pz               6.658811      15.247055

                         12       1    5s               13.787097       5.099349

                         13       1    6s               47.491635      12.893563

       Atomic covalent radius [Angstrom]:                                  0.820

       Atomic van der Waals radius [Angstrom]:                             1.920

     The atoms of this atomic kind are PAW atoms (GAPW):
       Hard Gaussian function radius:                                      1.512
       Rho0 radius:                                                        1.512
       Maximum GTO radius used for PAW projector construction:            24.566

     GAPW Soft Basis Set                                 aug-DZVP-MOLOPT-ae_soft

       Number of orbital shell sets:                                           2
       Number of orbital shells:                                              10
       Number of primitive Cartesian functions:                                8
       Number of Cartesian basis functions:                                   35
       Number of spherical basis functions:                                   30
       Norm type:                                                              2

       Normalised Cartesian orbitals:

                        Set   Shell   Orbital            Exponent    Coefficient

                          1       1    2s                0.082134       0.085473
                                                         0.140000       0.049675
                                                         0.279625      -0.030750
                                                         0.881274       0.022030
                                                         4.510873       0.000000

                          1       2    3px               0.082134      -0.004879
                                                         0.140000       0.000000
                                                         0.279625      -0.151722
                                                         0.881274      -0.583957
                                                         4.510873       0.000000
                          1       2    3py               0.082134      -0.004879
                                                         0.140000       0.000000
                                                         0.279625      -0.151722
                                                         0.881274      -0.583957
                                                         4.510873       0.000000
                          1       2    3pz               0.082134      -0.004879
                                                         0.140000       0.000000
                                                         0.279625      -0.151722
                                                         0.881274      -0.583957
                                                         4.510873       0.000000

                          1       3    4px               0.082134       0.052233
                                                         0.140000       0.000000
                                                         0.279625       0.094300
                                                         0.881274      -0.581323
                                                         4.510873       0.000000
                          1       3    4py               0.082134       0.052233
                                                         0.140000       0.000000
                                                         0.279625       0.094300
                                                         0.881274      -0.581323
                                                         4.510873       0.000000
                          1       3    4pz               0.082134       0.052233
                                                         0.140000       0.000000
                                                         0.279625       0.094300
                                                         0.881274      -0.581323
                                                         4.510873       0.000000

                          1       4    5px               0.082134       0.024659
                                                         0.140000       0.076570
                                                         0.279625      -0.053289
                                                         0.881274       0.410720
                                                         4.510873       0.000000
                          1       4    5py               0.082134       0.024659
                                                         0.140000       0.076570
                                                         0.279625      -0.053289
                                                         0.881274       0.410720
                                                         4.510873       0.000000
                          1       4    5pz               0.082134       0.024659
                                                         0.140000       0.076570
                                                         0.279625      -0.053289
                                                         0.881274       0.410720
                                                         4.510873       0.000000

                          1       5    4dx2              0.082134       0.000404
                                                         0.140000       0.000000
                                                         0.279625       0.111576
                                                         0.881274       0.641739
                                                         4.510873       0.000000
                          1       5    4dxy              0.082134       0.000700
                                                         0.140000       0.000000
                                                         0.279625       0.193255
                                                         0.881274       1.111524
                                                         4.510873       0.000000
                          1       5    4dxz              0.082134       0.000700
                                                         0.140000       0.000000
                                                         0.279625       0.193255
                                                         0.881274       1.111524
                                                         4.510873       0.000000
                          1       5    4dy2              0.082134       0.000404
                                                         0.140000       0.000000
                                                         0.279625       0.111576
                                                         0.881274       0.641739
                                                         4.510873       0.000000
                          1       5    4dyz              0.082134       0.000700
                                                         0.140000       0.000000
                                                         0.279625       0.193255
                                                         0.881274       1.111524
                                                         4.510873       0.000000
                          1       5    4dz2              0.082134       0.000404
                                                         0.140000       0.000000
                                                         0.279625       0.111576
                                                         0.881274       0.641739
                                                         4.510873       0.000000

                          1       6    5dx2              0.082134       0.036596
                                                         0.140000      -0.054919
                                                         0.279625      -0.008802
                                                         0.881274      -0.232953
                                                         4.510873       0.000000
                          1       6    5dxy              0.082134       0.063387
                                                         0.140000      -0.095122
                                                         0.279625      -0.015246
                                                         0.881274      -0.403486
                                                         4.510873       0.000000
                          1       6    5dxz              0.082134       0.063387
                                                         0.140000      -0.095122
                                                         0.279625      -0.015246
                                                         0.881274      -0.403486
                                                         4.510873       0.000000
                          1       6    5dy2              0.082134       0.036596
                                                         0.140000      -0.054919
                                                         0.279625      -0.008802
                                                         0.881274      -0.232953
                                                         4.510873       0.000000
                          1       6    5dyz              0.082134       0.063387
                                                         0.140000      -0.095122
                                                         0.279625      -0.015246
                                                         0.881274      -0.403486
                                                         4.510873       0.000000
                          1       6    5dz2              0.082134       0.036596
                                                         0.140000      -0.054919
                                                         0.279625      -0.008802
                                                         0.881274      -0.232953
                                                         4.510873       0.000000

                          1       7    5fx3              0.082134      -0.000468
                                                         0.140000       0.012301
                                                         0.279625       0.033988
                                                         0.881274       0.068820
                                                         4.510873       0.000000
                          1       7    5fx2y             0.082134      -0.001048
                                                         0.140000       0.027506
                                                         0.279625       0.075998
                                                         0.881274       0.153886
                                                         4.510873       0.000000
                          1       7    5fx2z             0.082134      -0.001048
                                                         0.140000       0.027506
                                                         0.279625       0.075998
                                                         0.881274       0.153886
                                                         4.510873       0.000000
                          1       7    5fxy2             0.082134      -0.001048
                                                         0.140000       0.027506
                                                         0.279625       0.075998
                                                         0.881274       0.153886
                                                         4.510873       0.000000
                          1       7    5fxyz             0.082134      -0.001814
                                                         0.140000       0.047643
                                                         0.279625       0.131633
                                                         0.881274       0.266539
                                                         4.510873       0.000000
                          1       7    5fxz2             0.082134      -0.001048
                                                         0.140000       0.027506
                                                         0.279625       0.075998
                                                         0.881274       0.153886
                                                         4.510873       0.000000
                          1       7    5fy3              0.082134      -0.000468
                                                         0.140000       0.012301
                                                         0.279625       0.033988
                                                         0.881274       0.068820
                                                         4.510873       0.000000
                          1       7    5fy2z             0.082134      -0.001048
                                                         0.140000       0.027506
                                                         0.279625       0.075998
                                                         0.881274       0.153886
                                                         4.510873       0.000000
                          1       7    5fyz2             0.082134      -0.001048
                                                         0.140000       0.027506
                                                         0.279625       0.075998
                                                         0.881274       0.153886
                                                         4.510873       0.000000
                          1       7    5fz3              0.082134      -0.000468
                                                         0.140000       0.012301
                                                         0.279625       0.033988
                                                         0.881274       0.068820
                                                         4.510873       0.000000

                          2       1    1s                2.208031      -0.468381
                                                         0.410209      -0.026981
                                                         0.151694      -0.023850

                          2       2    2s                2.208031      -0.246292
                                                         0.410209       0.238157
                                                         0.151694       0.084355

                          2       3    3s                2.208031      -0.073452
                                                         0.410209      -0.458063
                                                         0.151694       0.280188

     AE Potential information for                                            ALL

       Description:                                       All-electron potential
                                          Krack, Parrinello, PCCP 2, 2105 (2000)

       Gaussian exponent of the core charge distribution:               2.655410
       Electronic configuration (s p d ...):                           4   1   0

  3. Atomic kind: O                                     Number of atoms:       3

     Orbital Basis Set                                        aug-DZVP-MOLOPT-ae

       Number of orbital shell sets:                                           2
       Number of orbital shells:                                              10
       Number of primitive Cartesian functions:                               12
       Number of Cartesian basis functions:                                   35
       Number of spherical basis functions:                                   30
       Norm type:                                                              2

       Normalised Cartesian orbitals:

                        Set   Shell   Orbital            Exponent    Coefficient

                          1       1    2s                0.090000       0.120905
                                                         0.191936      -0.019521
                                                         0.750068       0.059582
                                                         2.907977       0.000000
                                                        16.368686       0.000000

                          1       2    3px               0.090000       0.000000
                                                         0.191936       0.023686
                                                         0.750068       0.626550
                                                         2.907977       2.082711
                                                        16.368686       3.596544
                          1       2    3py               0.090000       0.000000
                                                         0.191936       0.023686
                                                         0.750068       0.626550
                                                         2.907977       2.082711
                                                        16.368686       3.596544
                          1       2    3pz               0.090000       0.000000
                                                         0.191936       0.023686
                                                         0.750068       0.626550
                                                         2.907977       2.082711
                                                        16.368686       3.596544

                          1       3    4px               0.090000       0.000000
                                                         0.191936       0.196557
                                                         0.750068      -0.157257
                                                         2.907977      -0.566756
                                                        16.368686      -1.323495
                          1       3    4py               0.090000       0.000000
                                                         0.191936       0.196557
                                                         0.750068      -0.157257
                                                         2.907977      -0.566756
                                                        16.368686      -1.323495
                          1       3    4pz               0.090000       0.000000
                                                         0.191936       0.196557
                                                         0.750068      -0.157257
                                                         2.907977      -0.566756
                                                        16.368686      -1.323495

                          1       4    5px               0.090000       0.020606
                                                         0.191936       0.124186
                                                         0.750068       0.098287
                                                         2.907977       0.000000
                                                        16.368686       0.000000
                          1       4    5py               0.090000       0.020606
                                                         0.191936       0.124186
                                                         0.750068       0.098287
                                                         2.907977       0.000000
                                                        16.368686       0.000000
                          1       4    5pz               0.090000       0.020606
                                                         0.191936       0.124186
                                                         0.750068       0.098287
                                                         2.907977       0.000000
                                                        16.368686       0.000000

                          1       5    4dx2              0.090000       0.000000
                                                         0.191936       0.030414
                                                         0.750068       0.724129
                                                         2.907977       1.586204
                                                        16.368686       1.487256
                          1       5    4dxy              0.090000       0.000000
                                                         0.191936       0.052678
                                                         0.750068       1.254227
                                                         2.907977       2.747386
                                                        16.368686       2.576002
                          1       5    4dxz              0.090000       0.000000
                                                         0.191936       0.052678
                                                         0.750068       1.254227
                                                         2.907977       2.747386
                                                        16.368686       2.576002
                          1       5    4dy2              0.090000       0.000000
                                                         0.191936       0.030414
                                                         0.750068       0.724129
                                                         2.907977       1.586204
                                                        16.368686       1.487256
                          1       5    4dyz              0.090000       0.000000
                                                         0.191936       0.052678
                                                         0.750068       1.254227
                                                         2.907977       2.747386
                                                        16.368686       2.576002
                          1       5    4dz2              0.090000       0.000000
                                                         0.191936       0.030414
                                                         0.750068       0.724129
                                                         2.907977       1.586204
                                                        16.368686       1.487256

                          1       6    5dx2              0.090000      -0.010181
                                                         0.191936       0.018957
                                                         0.750068       0.933882
                                                         2.907977       0.008471
                                                        16.368686       0.000000
                          1       6    5dxy              0.090000      -0.017634
                                                         0.191936       0.032834
                                                         0.750068       1.617531
                                                         2.907977       0.014671
                                                        16.368686       0.000000
                          1       6    5dxz              0.090000      -0.017634
                                                         0.191936       0.032834
                                                         0.750068       1.617531
                                                         2.907977       0.014671
                                                        16.368686       0.000000
                          1       6    5dy2              0.090000      -0.010181
                                                         0.191936       0.018957
                                                         0.750068       0.933882
                                                         2.907977       0.008471
                                                        16.368686       0.000000
                          1       6    5dyz              0.090000      -0.017634
                                                         0.191936       0.032834
                                                         0.750068       1.617531
                                                         2.907977       0.014671
                                                        16.368686       0.000000
                          1       6    5dz2              0.090000      -0.010181
                                                         0.191936       0.018957
                                                         0.750068       0.933882
                                                         2.907977       0.008471
                                                        16.368686       0.000000

                          1       7    5fx3              0.090000       0.003073
                                                         0.191936       0.017866
                                                         0.750068       0.208981
                                                         2.907977      -1.809714
                                                        16.368686       0.000000
                          1       7    5fx2y             0.090000       0.006871
                                                         0.191936       0.039950
                                                         0.750068       0.467295
                                                         2.907977      -4.046643
                                                        16.368686       0.000000
                          1       7    5fx2z             0.090000       0.006871
                                                         0.191936       0.039950
                                                         0.750068       0.467295
                                                         2.907977      -4.046643
                                                        16.368686       0.000000
                          1       7    5fxy2             0.090000       0.006871
                                                         0.191936       0.039950
                                                         0.750068       0.467295
                                                         2.907977      -4.046643
                                                        16.368686       0.000000
                          1       7    5fxyz             0.090000       0.011901
                                                         0.191936       0.069196
                                                         0.750068       0.809378
                                                         2.907977      -7.008992
                                                        16.368686       0.000000
                          1       7    5fxz2             0.090000       0.006871
                                                         0.191936       0.039950
                                                         0.750068       0.467295
                                                         2.907977      -4.046643
                                                        16.368686       0.000000
                          1       7    5fy3              0.090000       0.003073
                                                         0.191936       0.017866
                                                         0.750068       0.208981
                                                         2.907977      -1.809714
                                                        16.368686       0.000000
                          1       7    5fy2z             0.090000       0.006871
                                                         0.191936       0.039950
                                                         0.750068       0.467295
                                                         2.907977      -4.046643
                                                        16.368686       0.000000
                          1       7    5fyz2             0.090000       0.006871
                                                         0.191936       0.039950
                                                         0.750068       0.467295
                                                         2.907977      -4.046643
                                                        16.368686       0.000000
                          1       7    5fz3              0.090000       0.003073
                                                         0.191936       0.017866
                                                         0.750068       0.208981
                                                         2.907977      -1.809714
                                                        16.368686       0.000000

                          2       1    1s                0.293338      -0.001581
                                                         0.941883       0.076823
                                                         5.946538      -1.128731
                                                        19.692604      -3.542509
                                                        76.928143      -3.538410
                                                       340.903325      -2.616043
                                                      2266.118827      -1.088852

                          2       2    2s                0.293338       0.124568
                                                         0.941883       0.386056
                                                         5.946538       0.132815
                                                        19.692604       0.350657
                                                        76.928143       1.294240
                                                       340.903325      -0.343055
                                                      2266.118827       0.730749

                          2       3    3s                0.293338       0.411906
                                                         0.941883      -0.735854
                                                         5.946538      -0.324434
                                                        19.692604      -0.580898
                                                        76.928143      -3.484318
                                                       340.903325       2.878168
                                                      2266.118827      -6.417666

     RI Auxiliary Basis Set             RI_aug-DZVP-MOLOPT-ae_N_RI_072_s_p_d_f_g

       Number of orbital shell sets:                                          20
       Number of orbital shells:                                              20
       Number of primitive Cartesian functions:                               20
       Number of Cartesian basis functions:                                   91
       Number of spherical basis functions:                                   72
       Norm type:                                                              2

       Normalised Cartesian orbitals:

                        Set   Shell   Orbital            Exponent    Coefficient

                          1       1    1s                0.149663       0.171493

                          2       1   13dx2              0.154035       0.062337
                          2       1   13dxy              0.154035       0.107971
                          2       1   13dxz              0.154035       0.107971
                          2       1   13dy2              0.154035       0.062337
                          2       1   13dyz              0.154035       0.107971
                          2       1   13dz2              0.154035       0.062337

                          3       1    8px               0.183646       0.171363
                          3       1    8py               0.183646       0.171363
                          3       1    8pz               0.183646       0.171363

                          4       1   17fx3              0.375009       0.162012
                          4       1   17fx2y             0.375009       0.362270
                          4       1   17fx2z             0.375009       0.362270
                          4       1   17fxy2             0.375009       0.362270
                          4       1   17fxyz             0.375009       0.627470
                          4       1   17fxz2             0.375009       0.362270
                          4       1   17fy3              0.375009       0.162012
                          4       1   17fy2z             0.375009       0.362270
                          4       1   17fyz2             0.375009       0.362270
                          4       1   17fz3              0.375009       0.162012

                          5       1    2s                0.391216       0.352551

                          6       1   14dx2              0.576365       0.627525
                          6       1   14dxy              0.576365       1.086905
                          6       1   14dxz              0.576365       1.086905
                          6       1   14dy2              0.576365       0.627525
                          6       1   14dyz              0.576365       1.086905
                          6       1   14dz2              0.576365       0.627525

                          7       1    9px               0.681723       0.882978
                          7       1    9py               0.681723       0.882978
                          7       1    9pz               0.681723       0.882978

                          8       1   20gx4              0.710982       0.435559
                          8       1   20gx3y             0.710982       1.152381
                          8       1   20gx3z             0.710982       1.152381
                          8       1   20gx2y2            0.710982       1.487718
                          8       1   20gx2yz            0.710982       2.576803
                          8       1   20gx2z2            0.710982       1.487718
                          8       1   20gxy3             0.710982       1.152381
                          8       1   20gxy2z            0.710982       2.576803
                          8       1   20gxyz2            0.710982       2.576803
                          8       1   20gxz3             0.710982       1.152381
                          8       1   20gy4              0.710982       0.435559
                          8       1   20gy3z             0.710982       1.152381
                          8       1   20gy2z2            0.710982       1.487718
                          8       1   20gyz3             0.710982       1.152381
                          8       1   20gz4              0.710982       0.435559

                          9       1   10px               1.077483       1.564779
                          9       1   10py               1.077483       1.564779
                          9       1   10pz               1.077483       1.564779

                         10       1    3s                1.173203       0.803415

                         11       1   15dx2              1.274843       2.517437
                         11       1   15dxy              1.274843       4.360328
                         11       1   15dxz              1.274843       4.360328
                         11       1   15dy2              1.274843       2.517437
                         11       1   15dyz              1.274843       4.360328
                         11       1   15dz2              1.274843       2.517437

                         12       1   18fx3              1.337264       2.831020
                         12       1   18fx2y             1.337264       6.330353
                         12       1   18fx2z             1.337264       6.330353
                         12       1   18fxy2             1.337264       6.330353
                         12       1   18fxyz             1.337264      10.964493
                         12       1   18fxz2             1.337264       6.330353
                         12       1   18fy3              1.337264       2.831020
                         12       1   18fy2z             1.337264       6.330353
                         12       1   18fyz2             1.337264       6.330353
                         12       1   18fz3              1.337264       2.831020

                         13       1    4s                3.143421       1.682527

                         14       1   11px               3.601750       7.072649
                         14       1   11py               3.601750       7.072649
                         14       1   11pz               3.601750       7.072649

                         15       1   16dx2              4.763207      25.277465
                         15       1   16dxy              4.763207      43.781854
                         15       1   16dxz              4.763207      43.781854
                         15       1   16dy2              4.763207      25.277465
                         15       1   16dyz              4.763207      43.781854
                         15       1   16dz2              4.763207      25.277465

                         16       1   19fx3              5.064165      56.636583
                         16       1   19fx2y             5.064165     126.643249
                         16       1   19fx2z             5.064165     126.643249
                         16       1   19fxy2             5.064165     126.643249
                         16       1   19fxyz             5.064165     219.352541
                         16       1   19fxz2             5.064165     126.643249
                         16       1   19fy3              5.064165      56.636583
                         16       1   19fy2z             5.064165     126.643249
                         16       1   19fyz2             5.064165     126.643249
                         16       1   19fz3              5.064165      56.636583

                         17       1    5s               12.516691       4.742717

                         18       1   12px              19.115095      56.971896
                         18       1   12py              19.115095      56.971896
                         18       1   12pz              19.115095      56.971896

                         19       1    6s               46.942700      12.781627

                         20       1    7s              160.163322      32.087242

       Atomic covalent radius [Angstrom]:                                  0.730

       Atomic van der Waals radius [Angstrom]:                             1.520

     The atoms of this atomic kind are PAW atoms (GAPW):
       Hard Gaussian function radius:                                      1.512
       Rho0 radius:                                                        1.512
       Maximum GTO radius used for PAW projector construction:            24.566

     GAPW Soft Basis Set                                 aug-DZVP-MOLOPT-ae_soft

       Number of orbital shell sets:                                           2
       Number of orbital shells:                                              10
       Number of primitive Cartesian functions:                                6
       Number of Cartesian basis functions:                                   35
       Number of spherical basis functions:                                   30
       Norm type:                                                              2

       Normalised Cartesian orbitals:

                        Set   Shell   Orbital            Exponent    Coefficient

                          1       1    2s                0.090000       0.120905
                                                         0.191936      -0.019521
                                                         0.750068       0.059582
                                                         2.907977       0.000000

                          1       2    3px               0.090000       0.000000
                                                         0.191936       0.023686
                                                         0.750068       0.626550
                                                         2.907977       2.082711
                          1       2    3py               0.090000       0.000000
                                                         0.191936       0.023686
                                                         0.750068       0.626550
                                                         2.907977       2.082711
                          1       2    3pz               0.090000       0.000000
                                                         0.191936       0.023686
                                                         0.750068       0.626550
                                                         2.907977       2.082711

                          1       3    4px               0.090000       0.000000
                                                         0.191936       0.196557
                                                         0.750068      -0.157257
                                                         2.907977      -0.566756
                          1       3    4py               0.090000       0.000000
                                                         0.191936       0.196557
                                                         0.750068      -0.157257
                                                         2.907977      -0.566756
                          1       3    4pz               0.090000       0.000000
                                                         0.191936       0.196557
                                                         0.750068      -0.157257
                                                         2.907977      -0.566756

                          1       4    5px               0.090000       0.020606
                                                         0.191936       0.124186
                                                         0.750068       0.098287
                                                         2.907977       0.000000
                          1       4    5py               0.090000       0.020606
                                                         0.191936       0.124186
                                                         0.750068       0.098287
                                                         2.907977       0.000000
                          1       4    5pz               0.090000       0.020606
                                                         0.191936       0.124186
                                                         0.750068       0.098287
                                                         2.907977       0.000000

                          1       5    4dx2              0.090000       0.000000
                                                         0.191936       0.030414
                                                         0.750068       0.724129
                                                         2.907977       1.586204
                          1       5    4dxy              0.090000       0.000000
                                                         0.191936       0.052678
                                                         0.750068       1.254227
                                                         2.907977       2.747386
                          1       5    4dxz              0.090000       0.000000
                                                         0.191936       0.052678
                                                         0.750068       1.254227
                                                         2.907977       2.747386
                          1       5    4dy2              0.090000       0.000000
                                                         0.191936       0.030414
                                                         0.750068       0.724129
                                                         2.907977       1.586204
                          1       5    4dyz              0.090000       0.000000
                                                         0.191936       0.052678
                                                         0.750068       1.254227
                                                         2.907977       2.747386
                          1       5    4dz2              0.090000       0.000000
                                                         0.191936       0.030414
                                                         0.750068       0.724129
                                                         2.907977       1.586204

                          1       6    5dx2              0.090000      -0.010181
                                                         0.191936       0.018957
                                                         0.750068       0.933882
                                                         2.907977       0.008471
                          1       6    5dxy              0.090000      -0.017634
                                                         0.191936       0.032834
                                                         0.750068       1.617531
                                                         2.907977       0.014671
                          1       6    5dxz              0.090000      -0.017634
                                                         0.191936       0.032834
                                                         0.750068       1.617531
                                                         2.907977       0.014671
                          1       6    5dy2              0.090000      -0.010181
                                                         0.191936       0.018957
                                                         0.750068       0.933882
                                                         2.907977       0.008471
                          1       6    5dyz              0.090000      -0.017634
                                                         0.191936       0.032834
                                                         0.750068       1.617531
                                                         2.907977       0.014671
                          1       6    5dz2              0.090000      -0.010181
                                                         0.191936       0.018957
                                                         0.750068       0.933882
                                                         2.907977       0.008471

                          1       7    5fx3              0.090000       0.003073
                                                         0.191936       0.017866
                                                         0.750068       0.208981
                                                         2.907977      -1.809714
                          1       7    5fx2y             0.090000       0.006871
                                                         0.191936       0.039950
                                                         0.750068       0.467295
                                                         2.907977      -4.046643
                          1       7    5fx2z             0.090000       0.006871
                                                         0.191936       0.039950
                                                         0.750068       0.467295
                                                         2.907977      -4.046643
                          1       7    5fxy2             0.090000       0.006871
                                                         0.191936       0.039950
                                                         0.750068       0.467295
                                                         2.907977      -4.046643
                          1       7    5fxyz             0.090000       0.011901
                                                         0.191936       0.069196
                                                         0.750068       0.809378
                                                         2.907977      -7.008992
                          1       7    5fxz2             0.090000       0.006871
                                                         0.191936       0.039950
                                                         0.750068       0.467295
                                                         2.907977      -4.046643
                          1       7    5fy3              0.090000       0.003073
                                                         0.191936       0.017866
                                                         0.750068       0.208981
                                                         2.907977      -1.809714
                          1       7    5fy2z             0.090000       0.006871
                                                         0.191936       0.039950
                                                         0.750068       0.467295
                                                         2.907977      -4.046643
                          1       7    5fyz2             0.090000       0.006871
                                                         0.191936       0.039950
                                                         0.750068       0.467295
                                                         2.907977      -4.046643
                          1       7    5fz3              0.090000       0.003073
                                                         0.191936       0.017866
                                                         0.750068       0.208981
                                                         2.907977      -1.809714

                          2       1    1s                0.293338      -0.001581
                                                         0.941883       0.076823

                          2       2    2s                0.293338       0.124568
                                                         0.941883       0.386056

                          2       3    3s                0.293338       0.411906
                                                         0.941883      -0.735854

     AE Potential information for                                            ALL

       Description:                                       All-electron potential
                                          Krack, Parrinello, PCCP 2, 2105 (2000)

       Gaussian exponent of the core charge distribution:               8.154466
       Electronic configuration (s p d ...):                           4   4   0

  4. Atomic kind: C                                     Number of atoms:       7

     Orbital Basis Set                                        aug-DZVP-MOLOPT-ae

       Number of orbital shell sets:                                           2
       Number of orbital shells:                                              10
       Number of primitive Cartesian functions:                               13
       Number of Cartesian basis functions:                                   35
       Number of spherical basis functions:                                   30
       Norm type:                                                              2

       Normalised Cartesian orbitals:

                        Set   Shell   Orbital            Exponent    Coefficient

                          1       1    2px               0.050000       0.000000
                                                         0.096935       0.005344
                                                         0.300899       0.144116
                                                         0.937529       0.673511
                                                         4.145546       1.425967
                          1       1    2py               0.050000       0.000000
                                                         0.096935       0.005344
                                                         0.300899       0.144116
                                                         0.937529       0.673511
                                                         4.145546       1.425967
                          1       1    2pz               0.050000       0.000000
                                                         0.096935       0.005344
                                                         0.300899       0.144116
                                                         0.937529       0.673511
                                                         4.145546       1.425967

                          1       2    3px               0.050000       0.000000
                                                         0.096935       0.066903
                                                         0.300899       0.082631
                                                         0.937529      -0.414500
                                                         4.145546      -0.833488
                          1       2    3py               0.050000       0.000000
                                                         0.096935       0.066903
                                                         0.300899       0.082631
                                                         0.937529      -0.414500
                                                         4.145546      -0.833488
                          1       2    3pz               0.050000       0.000000
                                                         0.096935       0.066903
                                                         0.300899       0.082631
                                                         0.937529      -0.414500
                                                         4.145546      -0.833488

                          1       3    4px               0.050000       0.052477
                                                         0.096935      -0.149600
                                                         0.300899      -0.031452
                                                         0.937529       0.106528
                                                         4.145546       0.000000
                          1       3    4py               0.050000       0.052477
                                                         0.096935      -0.149600
                                                         0.300899      -0.031452
                                                         0.937529       0.106528
                                                         4.145546       0.000000
                          1       3    4pz               0.050000       0.052477
                                                         0.096935      -0.149600
                                                         0.300899      -0.031452
                                                         0.937529       0.106528
                                                         4.145546       0.000000

                          1       4    3dx2              0.050000       0.000000
                                                         0.096935       0.001258
                                                         0.300899       0.105504
                                                         0.937529       0.830801
                                                         4.145546       0.718979
                          1       4    3dxy              0.050000       0.000000
                                                         0.096935       0.002179
                                                         0.300899       0.182739
                                                         0.937529       1.438990
                                                         4.145546       1.245309
                          1       4    3dxz              0.050000       0.000000
                                                         0.096935       0.002179
                                                         0.300899       0.182739
                                                         0.937529       1.438990
                                                         4.145546       1.245309
                          1       4    3dy2              0.050000       0.000000
                                                         0.096935       0.001258
                                                         0.300899       0.105504
                                                         0.937529       0.830801
                                                         4.145546       0.718979
                          1       4    3dyz              0.050000       0.000000
                                                         0.096935       0.002179
                                                         0.300899       0.182739
                                                         0.937529       1.438990
                                                         4.145546       1.245309
                          1       4    3dz2              0.050000       0.000000
                                                         0.096935       0.001258
                                                         0.300899       0.105504
                                                         0.937529       0.830801
                                                         4.145546       0.718979

                          1       5    4dx2              0.050000      -0.011665
                                                         0.096935       0.057456
                                                         0.300899      -0.258169
                                                         0.937529       0.000000
                                                         4.145546       0.000000
                          1       5    4dxy              0.050000      -0.020204
                                                         0.096935       0.099516
                                                         0.300899      -0.447162
                                                         0.937529       0.000000
                                                         4.145546       0.000000
                          1       5    4dxz              0.050000      -0.020204
                                                         0.096935       0.099516
                                                         0.300899      -0.447162
                                                         0.937529       0.000000
                                                         4.145546       0.000000
                          1       5    4dy2              0.050000      -0.011665
                                                         0.096935       0.057456
                                                         0.300899      -0.258169
                                                         0.937529       0.000000
                                                         4.145546       0.000000
                          1       5    4dyz              0.050000      -0.020204
                                                         0.096935       0.099516
                                                         0.300899      -0.447162
                                                         0.937529       0.000000
                                                         4.145546       0.000000
                          1       5    4dz2              0.050000      -0.011665
                                                         0.096935       0.057456
                                                         0.300899      -0.258169
                                                         0.937529       0.000000
                                                         4.145546       0.000000

                          1       6    4fx3              0.050000      -0.000180
                                                         0.096935       0.008160
                                                         0.300899       0.004002
                                                         0.937529       0.000000
                                                         4.145546       0.000000
                          1       6    4fx2y             0.050000      -0.000402
                                                         0.096935       0.018246
                                                         0.300899       0.008949
                                                         0.937529       0.000000
                                                         4.145546       0.000000
                          1       6    4fx2z             0.050000      -0.000402
                                                         0.096935       0.018246
                                                         0.300899       0.008949
                                                         0.937529       0.000000
                                                         4.145546       0.000000
                          1       6    4fxy2             0.050000      -0.000402
                                                         0.096935       0.018246
                                                         0.300899       0.008949
                                                         0.937529       0.000000
                                                         4.145546       0.000000
                          1       6    4fxyz             0.050000      -0.000696
                                                         0.096935       0.031603
                                                         0.300899       0.015500
                                                         0.937529       0.000000
                                                         4.145546       0.000000
                          1       6    4fxz2             0.050000      -0.000402
                                                         0.096935       0.018246
                                                         0.300899       0.008949
                                                         0.937529       0.000000
                                                         4.145546       0.000000
                          1       6    4fy3              0.050000      -0.000180
                                                         0.096935       0.008160
                                                         0.300899       0.004002
                                                         0.937529       0.000000
                                                         4.145546       0.000000
                          1       6    4fy2z             0.050000      -0.000402
                                                         0.096935       0.018246
                                                         0.300899       0.008949
                                                         0.937529       0.000000
                                                         4.145546       0.000000
                          1       6    4fyz2             0.050000      -0.000402
                                                         0.096935       0.018246
                                                         0.300899       0.008949
                                                         0.937529       0.000000
                                                         4.145546       0.000000
                          1       6    4fz3              0.050000      -0.000180
                                                         0.096935       0.008160
                                                         0.300899       0.004002
                                                         0.937529       0.000000
                                                         4.145546       0.000000

                          2       1    1s                0.060000       0.000000
                                                         0.161278       0.024253
                                                         0.523772      -0.029268
                                                         3.176528       0.666384
                                                        10.501907       2.110671
                                                        40.805234       2.242010
                                                       186.270922       1.801845
                                                      1238.394264      -0.490536

                          2       2    2s                0.060000       0.000000
                                                         0.161278       0.080328
                                                         0.523772       0.279468
                                                         3.176528      -0.079506
                                                        10.501907      -0.033488
                                                        40.805234       0.350132
                                                       186.270922      -0.108171
                                                      1238.394264       0.147138

                          2       3    3s                0.060000       0.000000
                                                         0.161278       0.225687
                                                         0.523772      -0.382710
                                                         3.176528      -0.308205
                                                        10.501907      -0.974990
                                                        40.805234      -2.174132
                                                       186.270922       1.755878
                                                      1238.394264     -12.484315

                          2       4    4s                0.060000      -0.055653
                                                         0.161278      -0.019607
                                                         0.523772       0.500289
                                                         3.176528       0.067234
                                                        10.501907       0.000000
                                                        40.805234       0.000000
                                                       186.270922       0.000000
                                                      1238.394264       0.000000

     RI Auxiliary Basis Set             RI_aug-DZVP-MOLOPT-ae_N_RI_060_s_p_d_f_g

       Number of orbital shell sets:                                          18
       Number of orbital shells:                                              18
       Number of primitive Cartesian functions:                               18
       Number of Cartesian basis functions:                                   75
       Number of spherical basis functions:                                   60
       Norm type:                                                              2

       Normalised Cartesian orbitals:

                        Set   Shell   Orbital            Exponent    Coefficient

                          1       1    1s                0.139029       0.162270

                          2       1   13dx2              0.260720       0.156572
                          2       1   13dxy              0.260720       0.271190
                          2       1   13dxz              0.260720       0.271190
                          2       1   13dy2              0.260720       0.156572
                          2       1   13dyz              0.260720       0.271190
                          2       1   13dz2              0.260720       0.156572

                          3       1    8px               0.263737       0.269404
                          3       1    8py               0.263737       0.269404
                          3       1    8pz               0.263737       0.269404

                          4       1   16fx3              0.295019       0.094432
                          4       1   16fx2y             0.295019       0.211156
                          4       1   16fx2z             0.295019       0.211156
                          4       1   16fxy2             0.295019       0.211156
                          4       1   16fxyz             0.295019       0.365732
                          4       1   16fxz2             0.295019       0.211156
                          4       1   16fy3              0.295019       0.094432
                          4       1   16fy2z             0.295019       0.211156
                          4       1   16fyz2             0.295019       0.211156
                          4       1   16fz3              0.295019       0.094432

                          5       1    2s                0.350935       0.324960

                          6       1    9px               0.711576       0.931572
                          6       1    9py               0.711576       0.931572
                          6       1    9pz               0.711576       0.931572

                          7       1   14dx2              0.722037       0.930870
                          7       1   14dxy              0.722037       1.612314
                          7       1   14dxz              0.722037       1.612314
                          7       1   14dy2              0.722037       0.930870
                          7       1   14dyz              0.722037       1.612314
                          7       1   14dz2              0.722037       0.930870

                          8       1   18gx4              0.735195       0.477576
                          8       1   18gx3y             0.735195       1.263547
                          8       1   18gx3z             0.735195       1.263547
                          8       1   18gx2y2            0.735195       1.631232
                          8       1   18gx2yz            0.735195       2.825377
                          8       1   18gx2z2            0.735195       1.631232
                          8       1   18gxy3             0.735195       1.263547
                          8       1   18gxy2z            0.735195       2.825377
                          8       1   18gxyz2            0.735195       2.825377
                          8       1   18gxz3             0.735195       1.263547
                          8       1   18gy4              0.735195       0.477576
                          8       1   18gy3z             0.735195       1.263547
                          8       1   18gy2z2            0.735195       1.631232
                          8       1   18gyz3             0.735195       1.263547
                          8       1   18gz4              0.735195       0.477576

                          9       1    3s                1.027105       0.727145

                         10       1   17fx3              1.228639       2.339694
                         10       1   17fx2y             1.228639       5.231715
                         10       1   17fx2z             1.228639       5.231715
                         10       1   17fxy2             1.228639       5.231715
                         10       1   17fxyz             1.228639       9.061596
                         10       1   17fxz2             1.228639       5.231715
                         10       1   17fy3              1.228639       2.339694
                         10       1   17fy2z             1.228639       5.231715
                         10       1   17fyz2             1.228639       5.231715
                         10       1   17fz3              1.228639       2.339694

                         11       1   10px               1.813548       2.999863
                         11       1   10py               1.813548       2.999863
                         11       1   10pz               1.813548       2.999863

                         12       1   15dx2              2.060642       5.833296
                         12       1   15dxy              2.060642      10.103564
                         12       1   15dxz              2.060642      10.103564
                         12       1   15dy2              2.060642       5.833296
                         12       1   15dyz              2.060642      10.103564
                         12       1   15dz2              2.060642       5.833296

                         13       1    4s                3.115108       1.671148

                         14       1   11px               5.572228      12.203269
                         14       1   11py               5.572228      12.203269
                         14       1   11pz               5.572228      12.203269

                         15       1    5s                9.292692       3.793292

                         16       1   12px              16.974300      49.111129
                         16       1   12py              16.974300      49.111129
                         16       1   12pz              16.974300      49.111129

                         17       1    6s               27.662549       8.596650

                         18       1    7s               82.345042      19.482208

       Atomic covalent radius [Angstrom]:                                  0.770

       Atomic van der Waals radius [Angstrom]:                             1.700

     The atoms of this atomic kind are PAW atoms (GAPW):
       Hard Gaussian function radius:                                      1.512
       Rho0 radius:                                                        1.512
       Maximum GTO radius used for PAW projector construction:            24.566

     GAPW Soft Basis Set                                 aug-DZVP-MOLOPT-ae_soft

       Number of orbital shell sets:                                           2
       Number of orbital shells:                                              10
       Number of primitive Cartesian functions:                                9
       Number of Cartesian basis functions:                                   35
       Number of spherical basis functions:                                   30
       Norm type:                                                              2

       Normalised Cartesian orbitals:

                        Set   Shell   Orbital            Exponent    Coefficient

                          1       1    2px               0.050000       0.000000
                                                         0.096935       0.005344
                                                         0.300899       0.144116
                                                         0.937529       0.673511
                                                         4.145546       1.425967
                          1       1    2py               0.050000       0.000000
                                                         0.096935       0.005344
                                                         0.300899       0.144116
                                                         0.937529       0.673511
                                                         4.145546       1.425967
                          1       1    2pz               0.050000       0.000000
                                                         0.096935       0.005344
                                                         0.300899       0.144116
                                                         0.937529       0.673511
                                                         4.145546       1.425967

                          1       2    3px               0.050000       0.000000
                                                         0.096935       0.066903
                                                         0.300899       0.082631
                                                         0.937529      -0.414500
                                                         4.145546      -0.833488
                          1       2    3py               0.050000       0.000000
                                                         0.096935       0.066903
                                                         0.300899       0.082631
                                                         0.937529      -0.414500
                                                         4.145546      -0.833488
                          1       2    3pz               0.050000       0.000000
                                                         0.096935       0.066903
                                                         0.300899       0.082631
                                                         0.937529      -0.414500
                                                         4.145546      -0.833488

                          1       3    4px               0.050000       0.052477
                                                         0.096935      -0.149600
                                                         0.300899      -0.031452
                                                         0.937529       0.106528
                                                         4.145546       0.000000
                          1       3    4py               0.050000       0.052477
                                                         0.096935      -0.149600
                                                         0.300899      -0.031452
                                                         0.937529       0.106528
                                                         4.145546       0.000000
                          1       3    4pz               0.050000       0.052477
                                                         0.096935      -0.149600
                                                         0.300899      -0.031452
                                                         0.937529       0.106528
                                                         4.145546       0.000000

                          1       4    3dx2              0.050000       0.000000
                                                         0.096935       0.001258
                                                         0.300899       0.105504
                                                         0.937529       0.830801
                                                         4.145546       0.718979
                          1       4    3dxy              0.050000       0.000000
                                                         0.096935       0.002179
                                                         0.300899       0.182739
                                                         0.937529       1.438990
                                                         4.145546       1.245309
                          1       4    3dxz              0.050000       0.000000
                                                         0.096935       0.002179
                                                         0.300899       0.182739
                                                         0.937529       1.438990
                                                         4.145546       1.245309
                          1       4    3dy2              0.050000       0.000000
                                                         0.096935       0.001258
                                                         0.300899       0.105504
                                                         0.937529       0.830801
                                                         4.145546       0.718979
                          1       4    3dyz              0.050000       0.000000
                                                         0.096935       0.002179
                                                         0.300899       0.182739
                                                         0.937529       1.438990
                                                         4.145546       1.245309
                          1       4    3dz2              0.050000       0.000000
                                                         0.096935       0.001258
                                                         0.300899       0.105504
                                                         0.937529       0.830801
                                                         4.145546       0.718979

                          1       5    4dx2              0.050000      -0.011665
                                                         0.096935       0.057456
                                                         0.300899      -0.258169
                                                         0.937529       0.000000
                                                         4.145546       0.000000
                          1       5    4dxy              0.050000      -0.020204
                                                         0.096935       0.099516
                                                         0.300899      -0.447162
                                                         0.937529       0.000000
                                                         4.145546       0.000000
                          1       5    4dxz              0.050000      -0.020204
                                                         0.096935       0.099516
                                                         0.300899      -0.447162
                                                         0.937529       0.000000
                                                         4.145546       0.000000
                          1       5    4dy2              0.050000      -0.011665
                                                         0.096935       0.057456
                                                         0.300899      -0.258169
                                                         0.937529       0.000000
                                                         4.145546       0.000000
                          1       5    4dyz              0.050000      -0.020204
                                                         0.096935       0.099516
                                                         0.300899      -0.447162
                                                         0.937529       0.000000
                                                         4.145546       0.000000
                          1       5    4dz2              0.050000      -0.011665
                                                         0.096935       0.057456
                                                         0.300899      -0.258169
                                                         0.937529       0.000000
                                                         4.145546       0.000000

                          1       6    4fx3              0.050000      -0.000180
                                                         0.096935       0.008160
                                                         0.300899       0.004002
                                                         0.937529       0.000000
                                                         4.145546       0.000000
                          1       6    4fx2y             0.050000      -0.000402
                                                         0.096935       0.018246
                                                         0.300899       0.008949
                                                         0.937529       0.000000
                                                         4.145546       0.000000
                          1       6    4fx2z             0.050000      -0.000402
                                                         0.096935       0.018246
                                                         0.300899       0.008949
                                                         0.937529       0.000000
                                                         4.145546       0.000000
                          1       6    4fxy2             0.050000      -0.000402
                                                         0.096935       0.018246
                                                         0.300899       0.008949
                                                         0.937529       0.000000
                                                         4.145546       0.000000
                          1       6    4fxyz             0.050000      -0.000696
                                                         0.096935       0.031603
                                                         0.300899       0.015500
                                                         0.937529       0.000000
                                                         4.145546       0.000000
                          1       6    4fxz2             0.050000      -0.000402
                                                         0.096935       0.018246
                                                         0.300899       0.008949
                                                         0.937529       0.000000
                                                         4.145546       0.000000
                          1       6    4fy3              0.050000      -0.000180
                                                         0.096935       0.008160
                                                         0.300899       0.004002
                                                         0.937529       0.000000
                                                         4.145546       0.000000
                          1       6    4fy2z             0.050000      -0.000402
                                                         0.096935       0.018246
                                                         0.300899       0.008949
                                                         0.937529       0.000000
                                                         4.145546       0.000000
                          1       6    4fyz2             0.050000      -0.000402
                                                         0.096935       0.018246
                                                         0.300899       0.008949
                                                         0.937529       0.000000
                                                         4.145546       0.000000
                          1       6    4fz3              0.050000      -0.000180
                                                         0.096935       0.008160
                                                         0.300899       0.004002
                                                         0.937529       0.000000
                                                         4.145546       0.000000

                          2       1    1s                0.060000       0.000000
                                                         0.161278       0.024253
                                                         0.523772      -0.029268
                                                         3.176528       0.666384

                          2       2    2s                0.060000       0.000000
                                                         0.161278       0.080328
                                                         0.523772       0.279468
                                                         3.176528      -0.079506

                          2       3    3s                0.060000       0.000000
                                                         0.161278       0.225687
                                                         0.523772      -0.382710
                                                         3.176528      -0.308205

                          2       4    4s                0.060000      -0.055653
                                                         0.161278      -0.019607
                                                         0.523772       0.500289
                                                         3.176528       0.067234

     AE Potential information for                                            ALL

       Description:                                       All-electron potential
                                          Krack, Parrinello, PCCP 2, 2105 (2000)

       Gaussian exponent of the core charge distribution:               4.109048
       Electronic configuration (s p d ...):                           4   2   0


 MOLECULE KIND INFORMATION


 All atoms are their own molecule, skipping detailed information


 TOTAL NUMBERS AND MAXIMUM NUMBERS

  Total number of            - Atomic kinds:                                   4
                             - Atoms:                                         18
                             - Shell sets:                                    29
                             - Shells:                                       145
                             - Primitive Cartesian functions:                174
                             - Cartesian basis functions:                    448
                             - Spherical basis functions:                    393

  Maximum angular momentum of the orbital basis functions:                     3


 MODULE QUICKSTEP: ATOMIC COORDINATES IN ANGSTROM

   Atom Kind Element         X             Y             Z       Z(eff)     Mass
      1    1 H     1     11.856961     13.660407     16.262283   1.0000   1.0079
      2    2 B     5     13.675010     14.321120     16.522280   5.0000  10.8110
      3    3 O     8     12.594859     14.007239     15.736887   8.0000  15.9994
      4    4 C     6     14.955181     14.899606     15.815518   6.0000  12.0107
      5    4 C     6     14.961282     15.096860     14.424507   6.0000  12.0107
      6    4 C     6     16.124662     15.239743     16.516454   6.0000  12.0107
      7    1 H     1     14.070529     14.843531     13.845616   1.0000   1.0079
      8    1 H     1     16.175775     15.105411     17.600575   1.0000   1.0079
      9    3 O     8     13.559833     14.106776     17.878332   8.0000  15.9994
     10    1 H     1     14.347296     14.347532     18.385568   1.0000   1.0079
     11    3 O     8     16.942694     16.235907     11.614432   8.0000  15.9994
     12    4 C     6     16.081113     15.610351     13.762361   6.0000  12.0107
     13    4 C     6     17.234630     15.940774     14.491554   6.0000  12.0107
     14    4 C     6     17.252755     15.753869     15.868238   6.0000  12.0107
     15    4 C     6     16.031858     15.798276     12.294486   6.0000  12.0107
     16    1 H     1     18.097161     16.339593     13.957431   1.0000   1.0079
     17    1 H     1     18.143039     16.006514     16.444034   1.0000   1.0079
     18    1 H     1     15.059808     15.499047     11.826338   1.0000   1.0079



 SCF PARAMETERS         Density guess:                                    ATOMIC
                        --------------------------------------------------------
                        max_scf:                                             500
                        max_scf_history:                                       0
                        max_diis:                                              4
                        --------------------------------------------------------
                        eps_scf:                                        1.00E-06
                        eps_scf_history:                                0.00E+00
                        eps_diis:                                       1.00E-01
                        eps_eigval:                                     1.00E-05
                        --------------------------------------------------------
                        level_shift [a.u.]:                             0.000000
                        added MOs                                       354    0
                        --------------------------------------------------------
                        Mixing method:                            BROYDEN_MIXING
                                                charge density mixing in g-space
                        --------------------------------------------------------
                        No outer SCF

 PW_GRID| Information for grid number                                          1
 PW_GRID| Grid distributed over                                   192 processors
 PW_GRID| Real space group dimensions                                   192    1
 PW_GRID| the grid is blocked:                                                NO
 PW_GRID| Cutoff [a.u.]                                                    250.0
 PW_GRID| spherical cutoff:                                                   NO
 PW_GRID|   Bounds   1           -202     202                Points:         405
 PW_GRID|   Bounds   2           -202     202                Points:         405
 PW_GRID|   Bounds   3           -202     202                Points:         405
 PW_GRID| Volume element (a.u.^3)  0.2743E-02     Volume (a.u.^3)    182205.0337
 PW_GRID| Grid span                                                    FULLSPACE
 PW_GRID|   Distribution                         Average         Max         Min
 PW_GRID|   G-Vectors                           345990.2      346275      345870
 PW_GRID|   G-Rays                                 854.3         855         854
 PW_GRID|   Real Space Points                   345990.2      492075      328050

 PW_GRID| Information for grid number                                          2
 PW_GRID| Number of the reference grid                                         1
 PW_GRID| Grid distributed over                                   192 processors
 PW_GRID| Real space group dimensions                                   192    1
 PW_GRID| the grid is blocked:                                                NO
 PW_GRID| Cutoff [a.u.]                                                     83.3
 PW_GRID| spherical cutoff:                                                   NO
 PW_GRID|   Bounds   1           -120     119                Points:         240
 PW_GRID|   Bounds   2           -120     119                Points:         240
 PW_GRID|   Bounds   3           -120     119                Points:         240
 PW_GRID| Volume element (a.u.^3)  0.1318E-01     Volume (a.u.^3)    182205.0337
 PW_GRID| Grid span                                                    FULLSPACE
 PW_GRID|   Distribution                         Average         Max         Min
 PW_GRID|   G-Vectors                            72000.0       72240       71760
 PW_GRID|   G-Rays                                 300.0         301         299
 PW_GRID|   Real Space Points                    72000.0      115200       57600

 PW_GRID| Information for grid number                                          3
 PW_GRID| Number of the reference grid                                         1
 PW_GRID| Grid distributed over                                   192 processors
 PW_GRID| Real space group dimensions                                    12   16
 PW_GRID| the grid is blocked:                                                NO
 PW_GRID| Cutoff [a.u.]                                                     27.8
 PW_GRID| spherical cutoff:                                                   NO
 PW_GRID|   Bounds   1            -67      67                Points:         135
 PW_GRID|   Bounds   2            -67      67                Points:         135
 PW_GRID|   Bounds   3            -67      67                Points:         135
 PW_GRID| Volume element (a.u.^3)  0.7406E-01     Volume (a.u.^3)    182205.0337
 PW_GRID| Grid span                                                    FULLSPACE
 PW_GRID|   Distribution                         Average         Max         Min
 PW_GRID|   G-Vectors                            12814.5       12960       12690
 PW_GRID|   G-Rays                                  94.9          96          94
 PW_GRID|   Real Space Points                    12814.5       14580       11880

 PW_GRID| Information for grid number                                          4
 PW_GRID| Number of the reference grid                                         1
 PW_GRID| Grid distributed over                                   192 processors
 PW_GRID| Real space group dimensions                                    12   16
 PW_GRID| the grid is blocked:                                                NO
 PW_GRID| Cutoff [a.u.]                                                      9.3
 PW_GRID| spherical cutoff:                                                   NO
 PW_GRID|   Bounds   1            -40      39                Points:          80
 PW_GRID|   Bounds   2            -40      39                Points:          80
 PW_GRID|   Bounds   3            -40      39                Points:          80
 PW_GRID| Volume element (a.u.^3)  0.3559         Volume (a.u.^3)    182205.0337
 PW_GRID| Grid span                                                    FULLSPACE
 PW_GRID|   Distribution                         Average         Max         Min
 PW_GRID|   G-Vectors                             2666.7        2800        2560
 PW_GRID|   G-Rays                                  33.3          35          32
 PW_GRID|   Real Space Points                     2666.7        2800        2400

 POISSON| Solver                                                         WAVELET
 POISSON| Wavelet| Scaling function                                           40
 POISSON| Periodicity                                                       NONE

 RS_GRID| Information for grid number                                          1
 RS_GRID|   Bounds   1           -202     202                Points:         405
 RS_GRID|   Bounds   2           -202     202                Points:         405
 RS_GRID|   Bounds   3           -202     202                Points:         405
 RS_GRID| Real space distribution over                                  4 groups
 RS_GRID| Real space distribution along direction                              1
 RS_GRID| Border size                                                         37
 RS_GRID| Real space distribution over                                  6 groups
 RS_GRID| Real space distribution along direction                              2
 RS_GRID| Border size                                                         37
 RS_GRID| Real space distribution over                                  8 groups
 RS_GRID| Real space distribution along direction                              3
 RS_GRID| Border size                                                         37
 RS_GRID|   Distribution                         Average         Max         Min
 RS_GRID|   Planes                                 175.2         176         175
 RS_GRID|   Distribution                         Average         Max         Min
 RS_GRID|   Planes                                 141.5         142         141
 RS_GRID|   Distribution                         Average         Max         Min
 RS_GRID|   Planes                                 124.6         125         124

 RS_GRID| Information for grid number                                          2
 RS_GRID|   Bounds   1           -120     119                Points:         240
 RS_GRID|   Bounds   2           -120     119                Points:         240
 RS_GRID|   Bounds   3           -120     119                Points:         240
 RS_GRID| Real space distribution over                                  4 groups
 RS_GRID| Real space distribution along direction                              1
 RS_GRID| Border size                                                         39
 RS_GRID| Real space distribution over                                  6 groups
 RS_GRID| Real space distribution along direction                              2
 RS_GRID| Border size                                                         39
 RS_GRID| Real space distribution over                                  8 groups
 RS_GRID| Real space distribution along direction                              3
 RS_GRID| Border size                                                         39
 RS_GRID|   Distribution                         Average         Max         Min
 RS_GRID|   Planes                                 138.0         138         138
 RS_GRID|   Distribution                         Average         Max         Min
 RS_GRID|   Planes                                 118.0         118         118
 RS_GRID|   Distribution                         Average         Max         Min
 RS_GRID|   Planes                                 108.0         108         108

 RS_GRID| Information for grid number                                          3
 RS_GRID|   Bounds   1            -67      67                Points:         135
 RS_GRID|   Bounds   2            -67      67                Points:         135
 RS_GRID|   Bounds   3            -67      67                Points:         135
 RS_GRID| Real space fully replicated
 RS_GRID| Group size                                                           1

 RS_GRID| Information for grid number                                          4
 RS_GRID|   Bounds   1            -40      39                Points:          80
 RS_GRID|   Bounds   2            -40      39                Points:          80
 RS_GRID|   Bounds   3            -40      39                Points:          80
 RS_GRID| Real space fully replicated
 RS_GRID| Group size                                                           1

  HFX_INFO| Replica ID:                                                        1
  HFX_INFO| FRACTION:                                               0.2500000000
  HFX_INFO| Interaction Potential:                                       COULOMB
  HFX_INFO| EPS_SCHWARZ:                                                 1.0E-10
  HFX_INFO| EPS_SCHWARZ_FORCES                                           1.0E-08
  HFX_INFO| EPS_STORAGE_SCALING:                                         1.0E+00
  HFX_INFO| NBINS:                                                            64
  HFX_INFO| BLOCK_SIZE:                                                        1
  HFX_INFO| Number of periodic shells considered:                           NONE
  HFX_INFO| Number of periodic cells considered:                            NONE


 OVERLAP MATRIX CONDITION NUMBER
 1-Norm Condition Number (Estimate)
   CN : |A|*|A^-1|:  3.342E+001 *  2.259E+004   = 7.548E+005  Log(1-CN):  5.8778
 1-Norm and 2-Norm Condition Numbers using Diagonalization
   CN : |A|*|A^-1|:  3.342E+001 *  3.439E+004   = 1.149E+006  Log(1-CN):  6.0603
   CN : max/min ev:  1.023E+001 /  7.179E-005   = 1.425E+005  Log(2-CN):  5.1537

 Extrapolation method: initial_guess

 Atomic guess: The first density matrix is obtained in terms of atomic orbitals
               and electronic configurations assigned to each atomic kind

 Guess for atomic kind: H

 Electronic structure
    Total number of core electrons                                          0.00
    Total number of valence electrons                                       1.00
    Total number of electrons                                               1.00
    Multiplicity                                                   not specified
    S      1.00


 *******************************************************************************
                  Iteration          Convergence                     Energy [au]
 *******************************************************************************
                          1        0.100530E-01                  -0.443985550189
                          2        0.945329E-03                  -0.444090029920
                          3        0.103025E-03                  -0.444092117382
                          4        0.802727E-07                  -0.444092129626

 Energy components [Hartree]           Total Energy ::           -0.444092129626
                                        Band Energy ::           -0.233486998571
                                     Kinetic Energy ::            0.420413643923
                                   Potential Energy ::           -0.864505773549
                                      Virial (-V/T) ::            2.056321877382
                                        Core Energy ::           -0.493965249450
                                          XC Energy ::           -0.230662915809
                                     Coulomb Energy ::            0.280536035634

 Orbital energies  State     L     Occupation   Energy[a.u.]          Energy[eV]

                       1     0          1.000      -0.233487           -6.353504


 Total Electron Density at R=0:                                         0.246678

 Guess for atomic kind: B

 Electronic structure
    Total number of core electrons                                          0.00
    Total number of valence electrons                                       5.00
    Total number of electrons                                               5.00
    Multiplicity                                                   not specified
    S      2.00  2.00
    P      1.00


 *******************************************************************************
                  Iteration          Convergence                     Energy [au]
 *******************************************************************************
                          1        0.478540E-01                 -24.326455422583
                          2        0.230834E-01                 -24.328419827544
                          3        0.809223E-03                 -24.329078639833
                          4        0.575629E-06                 -24.329079411789

 Energy components [Hartree]           Total Energy ::          -24.329079411789
                                        Band Energy ::          -13.899544962659
                                     Kinetic Energy ::           24.474308884861
                                   Potential Energy ::          -48.803388296650
                                      Virial (-V/T) ::            1.994066043958
                                        Core Energy ::          -32.336650665617
                                          XC Energy ::           -3.541518263746
                                     Coulomb Energy ::           11.549089517574

 Orbital energies  State     L     Occupation   Energy[a.u.]          Energy[eV]

                       1     0          2.000      -6.542413         -178.028103
                       2     0          2.000      -0.341450           -9.291315

                       1     1          1.000      -0.131820           -3.587017


 Total Electron Density at R=0:                                        66.326855

 Guess for atomic kind: O

 Electronic structure
    Total number of core electrons                                          0.00
    Total number of valence electrons                                       8.00
    Total number of electrons                                               8.00
    Multiplicity                                                   not specified
    S      2.00  2.00
    P      4.00


 *******************************************************************************
                  Iteration          Convergence                     Energy [au]
 *******************************************************************************
                          1        0.848674                     -74.203659346590
                          2        0.676538                     -74.224350300929
                          3        0.118146E-01                 -74.325384117638
                          4        0.875023E-03                 -74.325411956579
                          5        0.262407E-04                 -74.325412100097
                          6        0.953985E-07                 -74.325412100225

 Energy components [Hartree]           Total Energy ::          -74.325412100225
                                        Band Energy ::          -40.703914598336
                                     Kinetic Energy ::           74.466117831459
                                   Potential Energy ::         -148.791529931684
                                      Virial (-V/T) ::            1.998110473121
                                        Core Energy ::         -102.666843544964
                                          XC Energy ::           -7.743421966388
                                     Coulomb Energy ::           36.084853411128

 Orbital energies  State     L     Occupation   Energy[a.u.]          Energy[eV]

                       1     0          2.000     -18.799663         -511.564844
                       2     0          2.000      -0.852501          -23.197720

                       1     1          4.000      -0.349897           -9.521179


 Total Electron Density at R=0:                                       292.094851

 Guess for atomic kind: C

 Electronic structure
    Total number of core electrons                                          0.00
    Total number of valence electrons                                       6.00
    Total number of electrons                                               6.00
    Multiplicity                                                   not specified
    S      2.00  2.00
    P      2.00


 *******************************************************************************
                  Iteration          Convergence                     Energy [au]
 *******************************************************************************
                          1        0.133902                     -37.363061759844
                          2        0.102325                     -37.368472442707
                          3        0.860737E-03                 -37.376215693871
                          4        0.849047E-04                 -37.376216293501
                          5        0.219397E-06                 -37.376216298714

 Energy components [Hartree]           Total Energy ::          -37.376216298714
                                        Band Energy ::          -21.245708131867
                                     Kinetic Energy ::           37.464666877769
                                   Potential Energy ::          -74.840883176484
                                      Virial (-V/T) ::            1.997639093407
                                        Core Energy ::          -50.271057779086
                                          XC Energy ::           -4.736056292831
                                     Coulomb Energy ::           17.630897773203

 Orbital energies  State     L     Occupation   Energy[a.u.]          Energy[eV]

                       1     0          2.000      -9.941022         -270.508975
                       2     0          2.000      -0.490185          -13.338601

                       1     1          2.000      -0.191647           -5.214984


 Total Electron Density at R=0:                                       116.283880
 Re-scaling the density matrix to get the right number of electrons
                  # Electrons              Trace(P)               Scaling factor
                           78                78.000                        1.000

 Number of electrons:                                                         78
 Number of occupied orbitals:                                                 39
 Number of molecular orbitals:                                               393

 Number of orbital functions:                                                393
 Number of independent orbital functions:                                    393


 SCF WAVEFUNCTION OPTIMIZATION

  Step     Update method      Time    Convergence         Total energy    Change
  ------------------------------------------------------------------------------

  HFX_MEM_INFO| Est. max. program size before HFX [MiB]:                     794
  HFX_MEM_INFO| Number of cart. primitive ERI's calculated:         317733160363
  HFX_MEM_INFO| Number of sph. ERI's calculated:                      3429289062
  HFX_MEM_INFO| Number of sph. ERI's stored in-core:                  3429289062
  HFX_MEM_INFO| Number of sph. ERI's stored on disk:                           0
  HFX_MEM_INFO| Number of sph. ERI's calculated on the fly:                    0
  HFX_MEM_INFO| Total memory consumption ERI's RAM [MiB]:                  11784
  HFX_MEM_INFO| Whereof max-vals [MiB]:                                        6
  HFX_MEM_INFO| Total compression factor ERI's RAM:                         2.22
  HFX_MEM_INFO| Total memory consumption ERI's disk [MiB]:                     0
  HFX_MEM_INFO| Total compression factor ERI's disk:                        0.00
  HFX_MEM_INFO| Size of density/Fock matrix [MiB]:                             0
  HFX_MEM_INFO| Size of buffers [MiB]:                                        16
  HFX_MEM_INFO| Est. max. program size after HFX  [MiB]:                    1360

     1 NoMix/Diag. 0.10E+00   20.3     4.92314701      -523.0304511800 -5.23E+02
     2 Broy./Diag. 0.10E+00    1.9     0.10331436      -511.0893478628  1.19E+01
     3 Broy./Diag. 0.10E+00    1.7     0.08326335      -511.0350850931  5.43E-02
     4 Broy./Diag. 0.10E+00    1.3     0.35783534      -513.8711868391 -2.84E+00
     5 Broy./Diag. 0.10E+00    1.6     0.05346850      -516.9732756238 -3.10E+00
     6 Broy./Diag. 0.10E+00    1.6     0.08989963      -518.1860916759 -1.21E+00
     7 Broy./Diag. 0.10E+00    1.6     0.06633460      -519.3254152029 -1.14E+00
     8 Broy./Diag. 0.10E+00    1.8     0.02224068      -520.2796034740 -9.54E-01
     9 Broy./Diag. 0.10E+00    1.7     0.05993482      -520.1786452641  1.01E-01
    10 Broy./Diag. 0.10E+00    1.6     0.01002004      -520.0835832649  9.51E-02
    11 Broy./Diag. 0.10E+00    1.5     0.00280619      -520.0664367680  1.71E-02
    12 Broy./Diag. 0.10E+00    1.5     0.01462098      -520.0513844203  1.51E-02
    13 Broy./Diag. 0.10E+00    1.9     0.02374056      -520.2240474213 -1.73E-01
    14 Broy./Diag. 0.10E+00    1.7     0.00379963      -520.4134670964 -1.89E-01
    15 Broy./Diag. 0.10E+00    1.5     0.03121036      -520.4097139289  3.75E-03
    16 Broy./Diag. 0.10E+00    1.7     0.00598227      -520.4457723238 -3.61E-02
    17 Broy./Diag. 0.10E+00    1.7     0.00327813      -520.4693779256 -2.36E-02
    18 Broy./Diag. 0.10E+00    1.6     0.01306188      -520.4832215251 -1.38E-02
    19 Broy./Diag. 0.10E+00    1.5     0.00364546      -520.5062408490 -2.30E-02
    20 Broy./Diag. 0.10E+00    1.6     0.00133980      -520.5466291181 -4.04E-02
    21 Broy./Diag. 0.10E+00    1.7     0.00388128      -520.5545266404 -7.90E-03
    22 Broy./Diag. 0.10E+00    1.7     0.00679719      -520.5373732370  1.72E-02
    23 Broy./Diag. 0.10E+00    1.5     0.00525121      -520.5425533302 -5.18E-03
    24 Broy./Diag. 0.10E+00    1.6     0.00273826      -520.5315232954  1.10E-02
    25 Broy./Diag. 0.10E+00    1.6     0.00431144      -520.5164744572  1.50E-02
    26 Broy./Diag. 0.10E+00    1.7     0.00142310      -520.5400356708 -2.36E-02
    27 Broy./Diag. 0.10E+00    1.6     0.00203042      -520.5571662023 -1.71E-02
    28 Broy./Diag. 0.10E+00    1.6     0.00276709      -520.5561330264  1.03E-03
    29 Broy./Diag. 0.10E+00    1.6     0.00175521      -520.5548507399  1.28E-03
    30 Broy./Diag. 0.10E+00    1.7     0.00130859      -520.5520538557  2.80E-03
    31 Broy./Diag. 0.10E+00    1.6     0.00120805      -520.5546140808 -2.56E-03
    32 Broy./Diag. 0.10E+00    1.8     0.00050889      -520.5564335981 -1.82E-03
    33 Broy./Diag. 0.10E+00    1.7     0.00115594      -520.5514170933  5.02E-03
    34 Broy./Diag. 0.10E+00    1.6     0.00088755      -520.5472252428  4.19E-03
    35 Broy./Diag. 0.10E+00    1.5     0.00072607      -520.5519428740 -4.72E-03
    36 Broy./Diag. 0.10E+00    1.5     0.00062106      -520.5547561194 -2.81E-03
    37 Broy./Diag. 0.10E+00    1.7     0.00066685      -520.5554406624 -6.85E-04
    38 Broy./Diag. 0.10E+00    1.7     0.00020723      -520.5577995744 -2.36E-03
    39 Broy./Diag. 0.10E+00    1.6     0.00098073      -520.5567985082  1.00E-03
    40 Broy./Diag. 0.10E+00    1.8     0.00040964      -520.5554119173  1.39E-03
    41 Broy./Diag. 0.10E+00    1.7     0.00013253      -520.5556552938 -2.43E-04
    42 Broy./Diag. 0.10E+00    1.6     0.00043250      -520.5555314479  1.24E-04
    43 Broy./Diag. 0.10E+00    1.6     0.00035521      -520.5556103370 -7.89E-05
    44 Broy./Diag. 0.10E+00    1.5     0.00046518      -520.5550432008  5.67E-04
    45 Broy./Diag. 0.10E+00    1.7     0.00011065      -520.5549066486  1.37E-04
    46 Broy./Diag. 0.10E+00    1.9     0.00013104      -520.5556963308 -7.90E-04
    47 Broy./Diag. 0.10E+00    1.6     0.00011236      -520.5557066315 -1.03E-05
    48 Broy./Diag. 0.10E+00    1.9     0.00022002      -520.5553152328  3.91E-04
    49 Broy./Diag. 0.10E+00    1.8     0.00003020      -520.5553848643 -6.96E-05
    50 Broy./Diag. 0.10E+00    1.7     0.00026008      -520.5552494712  1.35E-04
    51 Broy./Diag. 0.10E+00    1.6     0.00039940      -520.5551495913  9.99E-05
    52 Broy./Diag. 0.10E+00    1.6     0.00002222      -520.5554113858 -2.62E-04
    53 Broy./Diag. 0.10E+00    1.8     0.00003320      -520.5553756365  3.57E-05
    54 Broy./Diag. 0.10E+00    1.7     0.00036915      -520.5552691543  1.06E-04
    55 Broy./Diag. 0.10E+00    1.6     0.00002780      -520.5554272179 -1.58E-04
    56 Broy./Diag. 0.10E+00    1.7     0.00003828      -520.5555877029 -1.60E-04
    57 Broy./Diag. 0.10E+00    1.8     0.00007372      -520.5555562961  3.14E-05
    58 Broy./Diag. 0.10E+00    1.7     0.00004861      -520.5554315172  1.25E-04
    59 Broy./Diag. 0.10E+00    1.6     0.00003467      -520.5554270340  4.48E-06
    60 Broy./Diag. 0.10E+00    1.6     0.00006040      -520.5553972690  2.98E-05
    61 Broy./Diag. 0.10E+00    1.8     0.00004324      -520.5553543532  4.29E-05
    62 Broy./Diag. 0.10E+00    1.7     0.00001278      -520.5554096896 -5.53E-05
    63 Broy./Diag. 0.10E+00    1.6     0.00002044      -520.5554181891 -8.50E-06
    64 Broy./Diag. 0.10E+00    1.9     0.00000423      -520.5553577383  6.05E-05
    65 Broy./Diag. 0.10E+00    1.8     0.00000386      -520.5553670430 -9.30E-06
    66 Broy./Diag. 0.10E+00    1.8     0.00000372      -520.5553765143 -9.47E-06
    67 Broy./Diag. 0.10E+00    1.6     0.00000436      -520.5553644343  1.21E-05
    68 Broy./Diag. 0.10E+00    1.6     0.00001501      -520.5553517292  1.27E-05
    69 Broy./Diag. 0.10E+00    2.0     0.00000316      -520.5553435824  8.15E-06
    70 Broy./Diag. 0.10E+00    1.8     0.00000211      -520.5553518284 -8.25E-06
    71 Broy./Diag. 0.10E+00    1.6     0.00000230      -520.5553669550 -1.51E-05
    72 Broy./Diag. 0.10E+00    1.8     0.00000548      -520.5553618239  5.13E-06
    73 Broy./Diag. 0.10E+00    1.8     0.00000209      -520.5553561158  5.71E-06
    74 Broy./Diag. 0.10E+00    1.6     0.00000340      -520.5553683007 -1.22E-05
    75 Broy./Diag. 0.10E+00    1.7     0.00000258      -520.5553662808  2.02E-06
    76 Broy./Diag. 0.10E+00    1.6     0.00000201      -520.5553650011  1.28E-06
    77 Broy./Diag. 0.10E+00    1.8     0.00000377      -520.5553746036 -9.60E-06
    78 Broy./Diag. 0.10E+00    1.8     0.00000406      -520.5553743752  2.28E-07
    79 Broy./Diag. 0.10E+00    1.7     0.00000053      -520.5553658151  8.56E-06

  *** SCF run converged in    79 steps ***


  Electronic density on regular grids:        -58.4651699569       19.5348300431
  Core density on regular grids:               78.0000000000       -0.0000000000
  Hard and soft densities (Lebedev):         -507.6767732991     -488.1419438951
  Total Rho_soft + Rho1_hard - Rho1_soft      -77.9999993610
  Total charge density (r-space):               0.0000006390
  Total Rho_soft + Rho0_soft (g-space):        -0.0000000111

  Overlap energy of the core charge distribution:               0.00001939851204
  Self energy of the core charge distribution:               -448.64524253785680
  Core Hamiltonian energy:                                    -73.51186614393951
  Hartree energy:                                             158.36250176536413
  Exchange-correlation energy:                                -21.58806990117161
  Hartree-Fock Exchange energy:                               -16.79738449612461

  GAPW| Exc from hard and soft atomic rho1:                   -31.33062344764520
  GAPW| local Eh = 1 center integrals:                        -87.04470045226529

  Total energy:                                              -520.55536581512683

 !-----------------------------------------------------------------------------!
                     Mulliken Population Analysis

 #  Atom  Element  Kind  Atomic population                           Net charge
       1     H        1          0.096892                              0.903108
       2     B        2          2.558747                              2.441253
       3     O        3         10.215658                             -2.215658
       4     C        4          5.932720                              0.067280
       5     C        4          5.942379                              0.057621
       6     C        4          6.058038                             -0.058038
       7     H        1          0.810374                              0.189626
       8     H        1          0.753762                              0.246238
       9     O        3         10.395370                             -2.395370
      10     H        1         -0.057216                              1.057216
      11     O        3          9.432691                             -1.432691
      12     C        4          6.088373                             -0.088373
      13     C        4          5.989022                              0.010978
      14     C        4          6.086123                             -0.086123
      15     C        4          5.309109                              0.690891
      16     H        1          0.790578                              0.209422
      17     H        1          0.845657                              0.154343
      18     H        1          0.751722                              0.248278
 # Total charge                             78.000000                 -0.000000

 !-----------------------------------------------------------------------------!

 !-----------------------------------------------------------------------------!
                           Hirshfeld Charges

  #Atom  Element  Kind  Ref Charge     Population                    Net charge
      1       H      1       1.000          0.395                         0.605
      2       B      2       5.000          4.634                         0.366
      3       O      3       8.000          8.766                        -0.766
      4       C      4       6.000          6.055                        -0.055
      5       C      4       6.000          6.434                        -0.434
      6       C      4       6.000          6.472                        -0.472
      7       H      1       1.000          0.503                         0.497
      8       H      1       1.000          0.514                         0.486
      9       O      3       8.000          8.776                        -0.776
     10       H      1       1.000          0.398                         0.602
     11       O      3       8.000          8.433                        -0.433
     12       C      4       6.000          6.011                        -0.011
     13       C      4       6.000          6.424                        -0.424
     14       C      4       6.000          6.479                        -0.479
     15       C      4       6.000          6.160                        -0.160
     16       H      1       1.000          0.498                         0.502
     17       H      1       1.000          0.506                         0.494
     18       H      1       1.000          0.521                         0.479

  Total Charge                                                            0.020
 !-----------------------------------------------------------------------------!
  
 -------------------------------------------------------------------------------
 -                                                                             -
 -                          BANDSTRUCTURE CALCULATION                          -
 -                                                                             -
 -------------------------------------------------------------------------------
  
 Number of occupied molecular orbitals (MOs) = Number of occupied bands       39
 Number of unoccupied (= virtual) MOs = Number of unoccupied bands           354
 Number of Gaussian basis functions for MOs                                  393
 K-point mesh for the density of states (DOS) and the self-energy      1   1   1
  
 -------------------------------------------------------------------------------
 -                                                                             -
 -                                GW CALCULATION                               -
 -                                                                             -
 -------------------------------------------------------------------------------
  
 Input: Number of time/freq. points                                           30
 Input: ω_max for fitting Σ(iω) (eV)                                        10.0
 Input: Filter threshold for sparse tensor operations                    1.0E-11
 Input: Apply Hedin shift                                                      F
  
 Number of auxiliary Gaussian basis functions for χ, ε, W                    734
 Cutoff radius for the truncated Coulomb operator in Σ^x:               2645.9 Å
 Cutoff radius for the truncated Coulomb operator in RI metric:            7.0 Å
 Regularization parameter of RI                                          1.0E-02
 Regularization parameter of minimax grids                               1.0E-06
 Lattice sum size for V(k):                                                    3
  
 K-point mesh 1 for χ, ε, W                                            1   1   1
 K-point mesh 2 for χ, ε, W (for k-point extrapolation of W)           1   1   1
 Approximate the k-point extrapolation                                         F
 Group size for tensor operations                                            192
 
 Computed 3-center integrals (µν|P), execution time                        0.3 s
 Percentage of non-zero (µν|P)                                         100.000 %
 Max. distance between µ,ν in non-zero (µν|P)                              7.5 A
 Required memory if storing all 3-center integrals (µν|P)                   0 GB
 
 Number of i and j atoms in M_λνP(τ), N_νλQ(τ):                              139
 Number of inner loop atoms for µ in M_λνP = sum_µ (µν|P) G_µλ                18
 
 SCF direct band gap (eV)                                                   5.54
 Max. SCF eigval diff. (eV)                                             59068.26
 E-Range for minimax grid                                               10669.94
 Number of Padé parameters for analytic continuation:                          5
 
 Computed χ(iτ,k=0) for time point            1 / 30,    Execution time    0.4 s
 Computed χ(iτ,k=0) for time point            2 / 30,    Execution time    0.3 s
 Computed χ(iτ,k=0) for time point            3 / 30,    Execution time    0.3 s
 Computed χ(iτ,k=0) for time point            4 / 30,    Execution time    0.4 s
 Computed χ(iτ,k=0) for time point            5 / 30,    Execution time    0.4 s
 Computed χ(iτ,k=0) for time point            6 / 30,    Execution time    0.3 s
 Computed χ(iτ,k=0) for time point            7 / 30,    Execution time    0.4 s
 Computed χ(iτ,k=0) for time point            8 / 30,    Execution time    0.3 s
 Computed χ(iτ,k=0) for time point            9 / 30,    Execution time    0.3 s
 Computed χ(iτ,k=0) for time point           10 / 30,    Execution time    0.3 s
 Computed χ(iτ,k=0) for time point           11 / 30,    Execution time    0.3 s
 Computed χ(iτ,k=0) for time point           12 / 30,    Execution time    0.3 s
 Computed χ(iτ,k=0) for time point           13 / 30,    Execution time    0.3 s
 Computed χ(iτ,k=0) for time point           14 / 30,    Execution time    0.3 s
 Computed χ(iτ,k=0) for time point           15 / 30,    Execution time    0.3 s
 Computed χ(iτ,k=0) for time point           16 / 30,    Execution time    0.3 s
 Computed χ(iτ,k=0) for time point           17 / 30,    Execution time    0.3 s
 Computed χ(iτ,k=0) for time point           18 / 30,    Execution time    0.3 s
 Computed χ(iτ,k=0) for time point           19 / 30,    Execution time    0.3 s
 Computed χ(iτ,k=0) for time point           20 / 30,    Execution time    0.3 s
 Computed χ(iτ,k=0) for time point           21 / 30,    Execution time    0.3 s
 Computed χ(iτ,k=0) for time point           22 / 30,    Execution time    0.3 s
 Computed χ(iτ,k=0) for time point           23 / 30,    Execution time    0.3 s
 Computed χ(iτ,k=0) for time point           24 / 30,    Execution time    0.3 s
 Computed χ(iτ,k=0) for time point           25 / 30,    Execution time    0.3 s
 Computed χ(iτ,k=0) for time point           26 / 30,    Execution time    0.3 s
 Computed χ(iτ,k=0) for time point           27 / 30,    Execution time    0.3 s
 Computed χ(iτ,k=0) for time point           28 / 30,    Execution time    0.3 s
 Computed χ(iτ,k=0) for time point           29 / 30,    Execution time    0.3 s
 Computed χ(iτ,k=0) for time point           30 / 30,    Execution time    0.3 s
 
 Computed W(iτ,k) for k-point batch           1 /  1,    Execution time    3.2 s
 
 Computed Σ^x(k=0),                                      Execution time    0.5 s
 
 Computed Σ^c(iτ,k=0) for time point          1 / 30,    Execution time    0.4 s
 Computed Σ^c(iτ,k=0) for time point          2 / 30,    Execution time    0.4 s
 Computed Σ^c(iτ,k=0) for time point          3 / 30,    Execution time    0.4 s
 Computed Σ^c(iτ,k=0) for time point          4 / 30,    Execution time    0.4 s
 Computed Σ^c(iτ,k=0) for time point          5 / 30,    Execution time    0.4 s
 Computed Σ^c(iτ,k=0) for time point          6 / 30,    Execution time    0.5 s
 Computed Σ^c(iτ,k=0) for time point          7 / 30,    Execution time    0.4 s
 Computed Σ^c(iτ,k=0) for time point          8 / 30,    Execution time    0.5 s
 Computed Σ^c(iτ,k=0) for time point          9 / 30,    Execution time    0.4 s
 Computed Σ^c(iτ,k=0) for time point         10 / 30,    Execution time    0.5 s
 Computed Σ^c(iτ,k=0) for time point         11 / 30,    Execution time    0.4 s
 Computed Σ^c(iτ,k=0) for time point         12 / 30,    Execution time    0.4 s
 Computed Σ^c(iτ,k=0) for time point         13 / 30,    Execution time    0.4 s
 Computed Σ^c(iτ,k=0) for time point         14 / 30,    Execution time    0.4 s
 Computed Σ^c(iτ,k=0) for time point         15 / 30,    Execution time    0.4 s
 Computed Σ^c(iτ,k=0) for time point         16 / 30,    Execution time    0.5 s
 Computed Σ^c(iτ,k=0) for time point         17 / 30,    Execution time    0.4 s
 Computed Σ^c(iτ,k=0) for time point         18 / 30,    Execution time    0.4 s
 Computed Σ^c(iτ,k=0) for time point         19 / 30,    Execution time    0.5 s
 Computed Σ^c(iτ,k=0) for time point         20 / 30,    Execution time    0.5 s
 Computed Σ^c(iτ,k=0) for time point         21 / 30,    Execution time    0.4 s
 Computed Σ^c(iτ,k=0) for time point         22 / 30,    Execution time    0.4 s
 Computed Σ^c(iτ,k=0) for time point         23 / 30,    Execution time    0.4 s
 Computed Σ^c(iτ,k=0) for time point         24 / 30,    Execution time    0.4 s
 Computed Σ^c(iτ,k=0) for time point         25 / 30,    Execution time    0.4 s
 Computed Σ^c(iτ,k=0) for time point         26 / 30,    Execution time    0.4 s
 Computed Σ^c(iτ,k=0) for time point         27 / 30,    Execution time    0.4 s
 Computed Σ^c(iτ,k=0) for time point         28 / 30,    Execution time    0.5 s
 Computed Σ^c(iτ,k=0) for time point         29 / 30,    Execution time    0.5 s
 Computed Σ^c(iτ,k=0) for time point         30 / 30,    Execution time    0.5 s
 
 Sparsity of Σ^c(iτ,k=0): Percentage of skipped atom pairs:                0.0 %

 
 SCF valence band maximum (eV):                                           -7.711
 SCF conduction band minimum (eV):                                        -2.175
 SCF indirect band gap (eV):                                               5.536
 SCF direct band gap (eV):                                                 5.536
 
 G0W0 valence band maximum (eV):                                          -9.270
 G0W0 conduction band minimum (eV):                                       -0.252
 G0W0 indirect band gap (eV):                                              9.019
 G0W0 direct band gap (eV):                                                9.019
 
 Hartree-Fock with SCF orbitals valence band maximum (eV):                -9.475
 Hartree-Fock with SCF orbitals conduction band minimum (eV)               1.470
 Hartree-Fock with SCF orbitals indirect band gap (eV):                   10.945
 Hartree-Fock with SCF orbitals direct band gap (eV):                     10.945

 ENERGY| Total FORCE_EVAL ( QS ) energy [hartree]           -520.555365815126834

 -------------------------------------------------------------------------------
 -                                                                             -
 -                                DBCSR STATISTICS                             -
 -                                                                             -
 -------------------------------------------------------------------------------
 COUNTER                                    TOTAL       BLAS       SMM       ACC
 flops     9 x     9 x     9              3225096     100.0%      0.0%      0.0%     
 flops    30 x     9 x     9             14589720     100.0%      0.0%      0.0%     
 flops     9 x    30 x     9             14973660     100.0%      0.0%      0.0%     
 flops    30 x    30 x     9             84466800     100.0%      0.0%      0.0%     
 flops     9 x     9 x    32            137604096     100.0%      0.0%      0.0%     
 flops    30 x     9 x    32            622494720     100.0%      0.0%      0.0%     
 flops     9 x    30 x    32            638876160     100.0%      0.0%      0.0%     
 flops    30 x    30 x    32           3603916800     100.0%      0.0%      0.0%     
 flops inhomo. stacks                           0       0.0%      0.0%      0.0%
 flops total                         5.120147E+09     100.0%      0.0%      0.0%
 flops max/rank                    167.653800E+06     100.0%      0.0%      0.0%
 matmuls inhomo. stacks                         0       0.0%      0.0%      0.0%
 matmuls total                             175617     100.0%      0.0%      0.0%
 number of processed stacks                157131     100.0%      0.0%      0.0%
 average stack size                                     1.1       0.0       0.0
 marketing flops                   951.715392E+06
 -------------------------------------------------------------------------------
 # multiplications                             79
 max memory usage/rank              19.170251E+09
 # max total images/rank                        3
 # max 3D layers                                1
 # MPI messages exchanged                  667392
 MPI messages size (bytes):
  total size                         2.928353E+09
  min size                           0.000000E+00
  max size                          23.040000E+03
  average size                       4.387756E+03
 MPI breakdown and total messages size (bytes):
             size <=      128              372643                        0
       128 < size <=     8192              163925                835169040
      8192 < size <=    32768              130824               2093184000
     32768 < size <=   131072                   0                        0
    131072 < size <=  4194304                   0                        0
   4194304 < size <= 16777216                   0                        0
  16777216 < size                               0                        0
 -------------------------------------------------------------------------------

 *** WARNING in dbcsr_mm.F:301 :: Using a non-square number of MPI ranks ***
 *** might lead to poor performance. Used ranks: 192 Suggested: 196 400  ***

 -------------------------------------------------------------------------------
 -                                                                             -
 -                      DBCSR MESSAGE PASSING PERFORMANCE                      -
 -                                                                             -
 -------------------------------------------------------------------------------
 ROUTINE             CALLS      AVE VOLUME [Bytes]
 MP_Bcast                9                     12.
 MP_Allreduce          510                      9.
 MP_Alltoall          5634                  99910.
 MP_ISend             7584                   3415.
 MP_IRecv             7584                   3046.
 -------------------------------------------------------------------------------

 -------------------------------------------------------------------------------
 -                                                                             -
 -                                DBM STATISTICS                               -
 -                                                                             -
 -------------------------------------------------------------------------------
    M  x    N  x    K                                          COUNT     PERCENT
    ?  x    ?  x    ?                                         104752      47.32%
 >999  x    ?  x   ??                                          13310       6.01%
 >999  x   ??  x   ??                                          13310       6.01%
    ?  x  ???  x   ??                                          10230       4.62%
    ?  x    ?  x  ???                                           9000       4.07%
    ?  x   ??  x  ???                                           9000       4.07%
 >999  x    ?  x    ?                                           8470       3.83%
 >999  x   ??  x    ?                                           8470       3.83%
    ?  x  ???  x    ?                                           6510       2.94%
    ?  x    ?  x >999                                           6100       2.76%
    ?  x   ??  x >999                                           6100       2.76%
   ??  x    ?  x >999                                           6100       2.76%
   ??  x   ??  x >999                                           6100       2.76%
   ??  x  ???  x   ??                                           4092       1.85%
   ??  x    ?  x  ???                                           3600       1.63%
   ??  x   ??  x  ???                                           3600       1.63%
   ??  x  ???  x    ?                                           2604       1.18%
 -------------------------------------------------------------------------------

 -------------------------------------------------------------------------------
 -                                                                             -
 -                                GRID STATISTICS                              -
 -                                                                             -
 -------------------------------------------------------------------------------
 LP    KERNEL             BACKEND                              COUNT     PERCENT
 3     collocate ortho    CPU                                  22720      16.47%
 3     integrate ortho    CPU                                  22720      16.47%
 6     collocate ortho    CPU                                  13120       9.51%
 6     integrate ortho    CPU                                  13120       9.51%
 4     collocate ortho    CPU                                  11040       8.00%
 4     integrate ortho    CPU                                  11040       8.00%
 1     collocate ortho    CPU                                   9040       6.55%
 1     integrate ortho    CPU                                   9040       6.55%
 0     collocate ortho    CPU                                   8800       6.38%
 0     integrate ortho    CPU                                   8800       6.38%
 2     collocate ortho    CPU                                   2800       2.03%
 2     integrate ortho    CPU                                   2800       2.03%
 2     collocate general  CPU                                   1440       1.04%
 2     integrate general  CPU                                   1440       1.04%
 0     collocate general  CPU                                     18       0.01%
 0     integrate general  CPU                                     18       0.01%
 -------------------------------------------------------------------------------

 -------------------------------------------------------------------------------
 -                                                                             -
 -                          OFFLOAD MEMPOOL STATISTICS                         -
 -                                                                             -
 -------------------------------------------------------------------------------
 Memory consumption                Number of allocations  Used [MiB]  Size [MiB]
 Host                                                139          51          92
 -------------------------------------------------------------------------------

 MEMORY| Estimated peak process memory [MiB]                                1635

 -------------------------------------------------------------------------------
 ----                             MULTIGRID INFO                            ----
 -------------------------------------------------------------------------------
 count for grid        1:       20686721          cutoff [a.u.]          250.00
 count for grid        2:        4857594          cutoff [a.u.]           83.33
 count for grid        3:        4009134          cutoff [a.u.]           27.78
 count for grid        4:        1063573          cutoff [a.u.]            9.26
 total gridlevel count  :       30617022

 -------------------------------------------------------------------------------
 -                                                                             -
 -                         MESSAGE PASSING PERFORMANCE                         -
 -                                                                             -
 -------------------------------------------------------------------------------

 ROUTINE             CALLS      AVE VOLUME [Bytes]
 MP_Group             2989
 MP_Bcast            10437                 104093.
 MP_Allreduce        34926                   8452.
 MP_Sync              3932
 MP_Alltoall          4403                6725748.
 MP_SendRecv         30560                  69520.
 MP_ISendRecv        61502                  45302.
 MP_Wait             92577
 MP_comm_split        1622
 MP_ISend            33607                 341043.
 MP_IRecv            35929                 319498.
 -------------------------------------------------------------------------------


 -------------------------------------------------------------------------------
 -                                                                             -
 -                           R E F E R E N C E S                               -
 -                                                                             -
 -------------------------------------------------------------------------------
 
 CP2K version 2025.2 (Development Version), the CP2K developers group (2025).
 CP2K is freely available from https://www.cp2k.org/ .
 
 M. Graml, K. Zollner, D. Hernangómez-Pérez, P. E. Faria Junior, J. Wilhelm.
 J. Chem. Theory Comput. 20, 2202-2208 (2024).
 Low-scaling GW algorithm applied to twisted transition-metal dichalcogenide 
 heterobilayers.
 https://doi.org/10.1021/acs.jctc.3c01230

 T. D. Kuehne, M. Iannuzzi, M. Del Ben, V. V. Rybkin, P. Seewald, F. Stein, T. 
 Laino, R. Z. Khaliullin, O. Schuett, F. Schiffmann, D. Golze, J. Wilhelm, S. 
 Chulkov, M. H. Bani-Hashemian, V. Weber, U. Borstnik, M. Taillefumier, A. S. 
 Jakobovits, A. Lazzaro, H. Pabst, T. Mueller, R. Schade, M. Guidon, S. 
 Andermatt, N. Holmberg, G. K. Schenter, A. Hehn, A. Bussy, F. Belleflamme, G. 
 Tabacchi, A. Gloess, M. Lass, I. Bethune, C. J. Mundy, C. Plessl, M. Watkins, 
 J. VandeVondele, M. Krack, J. Hutter.
 J. Chem. Phys. 152, 194103 (2020).
 CP2K: An electronic structure and molecular dynamics software package - 
 Quickstep: Efficient and accurate electronic structure calculations.
 https://doi.org/10.1063/5.0007045

 O. Schuett, P. Messmer, J. Hutter, J. VandeVondele.
 Electronic Structure Calculations on Graphics Processing Units, 173-190 (2016).
 GPU-Accelerated Sparse Matrix-Matrix Multiplication for Linear Scaling Density 
 Functional Theory.
 https://doi.org/10.1002/9781118670712.ch8

 A. Heinecke, G. Henry, M. Hutchinson, H. Pabst.
 Proceedings of Intl. Supercomputing Conference, 981-991 (2016).
 LIBXSMM: Accelerating Small Matrix Multiplications by Runtime Code Generation.
 https://doi.org/10.1109/SC.2016.83

 J. Hutter, M. Iannuzzi, F. Schiffmann, J. VandeVondele.
 WIREs Comput Mol Sci. 4, 15-25 (2014).
 CP2K: atomistic simulations of condensed matter systems.
 https://doi.org/10.1002/wcms.1159

 U. Borstnik, J. VandeVondele, V. Weber, J. Hutter.
 Parallel Comput. 40, 47-58 (2014).
 Sparse matrix multiplication: The distributed block-compressed sparse row 
 library.
 https://doi.org/10.1016/j.parco.2014.03.012

 A. Marek, V. Blum, R. Johanni, V. Havu, B. Lang, T. Auckenthaler, A. Heinecke, 
 H. Bungartz, H. Lederer.
 J. Phys. Condens. Matter 26, 213201 (2014).
 The ELPA library: scalable parallel eigenvalue solutions for electronic 
 structure theory and computational science.
 https://doi.org/10.1088/0953-8984/26/21/213201

 M. Guidon, J. Hutter, J. VandeVondele.
 J. Chem. Theory Comput. 5, 3010-3021 (2009).
 Robust Periodic Hartree-Fock Exchange for Large-Scale Simulations Using 
 Gaussian Basis Sets.
 https://doi.org/10.1021/ct900494g

 M. Guidon, F. Schiffmann, J. Hutter, J. VandeVondele.
 J. Chem. Phys. 128, 214104 (2008).
 Ab initio molecular dynamics using hybrid density functionals.
 https://doi.org/10.1063/1.2931945

 L. Genovese, T. Deutsch, S. Goedecker.
 J. Chem. Phys. 127, 054704 (2007).
 Efficient and accurate three-dimensional Poisson solver for surface problems.
 https://doi.org/10.1063/1.2754685

 J. VandeVondele, J. Hutter.
 J. Chem. Phys. 127, 114105 (2007).
 Gaussian basis sets for accurate calculations on molecular systems in gas and 
 condensed phases.
 https://doi.org/10.1063/1.2770708

 L. Genovese, T. Deutsch, A. Neelov, S. Goedecker, G. Beylkin.
 J. Chem. Phys. 125, 074105 (2006).
 Efficient solution of Poisson's equation with free boundary conditions.
 https://doi.org/10.1063/1.2335442

 M. Frigo, S. G. Johnson.
 Proc. IEEE 93, 216-231 (2005).
 The design and implementation of FFTW3.
 https://doi.org/10.1109/JPROC.2004.840301

 M. Krack, M. Parrinello.
 Phys. Chem. Chem. Phys. 2, 2105-2112 (2000).
 All-electron ab-initio molecular dynamics.
 https://doi.org/10.1039/b001167n

 G. Lippert, J. Hutter, M. Parrinello.
 Theor. Chem. Acc. 103, 124-140 (1999).
 The Gaussian and augmented-plane-wave density functional method for ab initio 
 molecular dynamics simulations.
 https://doi.org/10.1007/s002140050523

 J. P. Perdew, K. Burke, M. Ernzerhof.
 Phys. Rev. Lett. 77, 3865-3868 (1996).
 Generalized gradient approximation made simple.
 https://doi.org/10.1103/PhysRevLett.77.3865


 -------------------------------------------------------------------------------
 -                                                                             -
 -                                T I M I N G                                  -
 -                                                                             -
 -------------------------------------------------------------------------------
 SUBROUTINE                       CALLS  ASD         SELF TIME        TOTAL TIME
                                MAXIMUM       AVERAGE  MAXIMUM  AVERAGE  MAXIMUM
 CP2K                                 1  1.0    0.013    0.038  182.795  182.804
 qs_energies                          1  2.0    0.000    0.000  182.495  182.505
 scf_env_do_scf                       1  3.0    0.000    0.000  150.482  150.490
 scf_env_do_scf_inner_loop           79  4.0    0.002    0.004  150.482  150.490
 qs_ks_build_kohn_sham_matrix        80  7.0    0.011    0.013  132.826  132.847
 qs_ks_update_qs_env                 79  5.0    0.001    0.001  131.499  131.520
 rebuild_ks_matrix                   79  6.0    0.000    0.000  131.493  131.513
 pw_poisson_solve                    80  8.0    0.147    0.229   77.532   77.547
 mp_alltoall_d11v                  2906 10.6   40.516   41.466   40.516   41.466
 ps_wavelet_solve                    80  9.0    2.237    3.088   31.300   31.537
 qs_energies_properties               1  3.0    0.000    0.000   29.038   29.044
 post_scf_bandstructure               1  4.0    0.000    0.000   29.038   29.044
 gw                                   1  5.0    0.000    0.000   28.889   28.891
 fft_wrap_pw1pw2                   1671 10.0    0.017    0.022   27.191   28.875
 fft_wrap_pw1pw2_250               1191 11.1    0.452    0.542   25.672   27.412
 fft3d_ps                          1671 12.0    3.027    4.231   25.565   27.296
 gw_calc_large_cell_Gamma             1  6.0    0.000    0.000   26.717   26.730
 mp_alltoall_z22v                  1671 14.0   21.457   23.219   21.457   23.219
 mp_alltoall_d54                     80 10.0   20.774   22.921   20.774   22.921
 hfx_ks_matrix                       80  8.0    0.001    0.001   19.654   19.691
 integrate_four_center               80  9.0    1.525    2.866   19.650   19.686
 dbt_total                          699  9.0    0.003    0.004   15.610   15.613
 qs_rho_update_rho_low               80  5.0    0.001    0.001   14.507   14.509
 dbt_contract                       243  9.9    0.007    0.008   14.234   14.236
 calculate_rho_elec                  80  6.0    0.054    0.079   14.058   14.060
 dbt_tas_multiply                   486 12.4    0.001    0.001   14.026   14.029
 dbt_tas_total                      486 13.4    0.041    0.066   14.017   14.018
 get_Sigma_c                          1  7.0    0.001    0.001   13.318   13.319
 qs_vxc_create                       80  8.0    0.001    0.002   12.858   13.024
 xc_vxc_pw_create                    79  9.0    0.081    0.112   12.856   13.023
 integrate_four_center_main          80 10.0    0.033    0.098   11.979   12.847
 integrate_four_center_bin         5535 11.0   11.946   12.828   11.946   12.828
 yz_to_x                            637 13.2    0.229    0.270   10.636   12.561
 x_to_yz                            714 12.9    0.360    0.558   11.358   11.674
 sum_up_and_integrate                80  8.0    0.001    0.001   10.009   10.435
 integrate_v_rspace                  80  9.0    0.002    0.002    9.985   10.411
 xc_pw_derive                       474 11.0    0.002    0.003   10.184   10.332
 mp_alltoall_d45                     81 10.0    9.735   10.314    9.735   10.314
 mp_waitany                       26348 11.5    8.040   10.167    8.040   10.167
 mp_sync                           3932 12.1    7.069    9.843    7.069    9.843
 density_rs2pw                       80  7.0    0.003    0.003    8.976    9.764
 transfer_pw2rs                     401 10.6    0.003    0.005    8.931    9.638
 potential_pw2rs                     80 10.0    0.006    0.007    9.492    9.510
 get_mat_chi_Gamma_tau                1  7.0    0.000    0.001    9.018    9.031
 contract_to_Sigma                   61  8.0    0.001    0.001    7.968    7.968
 transfer_pw2rs_250                 161 11.0    0.717    0.885    5.191    7.358
 xc_pw_divergence                    79 10.0    0.001    0.001    6.662    6.779
 xc_rho_set_and_dset_create          79 10.0    0.085    0.098    5.882    6.203
 compute_3c_integrals               152  8.6    0.002    0.003    6.030    6.031
 transfer_rs2pw                     401  8.4    0.006    0.010    5.107    5.859
 build_3c_integrals                 157  9.6    3.689    4.648    4.364    5.495
 grid_collocate_task_list            80  7.0    4.833    5.366    4.833    5.366
 prepare_gapw_den                    80  8.0    0.001    0.001    5.231    5.329
 dbt_tas_dbm                        486 14.4    0.001    0.001    5.090    5.090
 transfer_pw2rs_90                   80 12.0    0.138    0.213    2.894    4.729
 dbm_multiply                       486 16.4    3.855    4.694    3.855    4.694
 compute_3c_and_contract_W           31  8.0    0.000    0.001    4.660    4.661
 mp_waitall_1                     75599 12.0    2.187    4.559    2.187    4.559
 integrate_vhg0_rspace               80  8.0    0.080    0.120    3.376    3.992
 gspace_mixing                       78  5.0    0.052    0.078    3.784    3.784
 transfer_rs2pw_250                 161 10.0    0.811    0.926    2.799    3.581
 mp_sum_d                          9997  6.9    2.704    3.544    2.704    3.544
 put_rho0_on_grid                    80  9.0    0.058    0.094    3.396    3.493
 get_W_MIC                            1  7.0    0.000    0.000    3.490    3.490
 compute_W_MIC                        1  8.0    0.000    0.000    3.490    3.490
 compute_fm_W_MIC_freq_j             30  9.0    0.000    0.000    3.139    3.143
 G_times_3c                          60  8.0    0.000    0.005    2.880    2.885
 calc_screening_functions             1 10.0    2.507    2.557    2.829    2.877
 dbm_redistribute                   912 14.1    2.232    2.859    2.232    2.859
 cp_cfm_power                        30 10.0    0.000    0.000    2.474    2.479
 cp_cfm_heevd                        32 10.8    0.000    0.000    2.448    2.474
 cp_cfm_heevd_base                   32 11.8    2.447    2.474    2.447    2.474
 qs_scf_new_mos                      79  5.0    0.001    0.001    2.399    2.410
 convert_to_new_pgrid              1458 14.4    0.575    0.837    1.985    2.388
 dbt_tas_mm_2                       182 15.2    0.000    0.001    2.383    2.383
 dbt_tas_create_split              1618 15.2    0.003    0.004    2.182    2.273
 dbt_tas_create_split_rows_or_c    1618 16.2    0.004    0.005    2.178    2.270
 create_and_init_bs_env_for_gw        1  6.0    0.000    0.000    2.172    2.191
 cp_fm_diag_elpa                     85  7.1    0.000    0.000    2.154    2.162
 eigensolver_symm                    79  6.0    0.006    0.007    2.135    2.140
 cp_fm_diag_elpa_base                85  8.0    2.053    2.123    2.097    2.130
 mp_isend_dm3                      3212 11.5    0.745    2.112    0.745    2.112
 broyden_mixing                      78  6.0    1.946    2.005    2.024    2.068
 init_scf_run                         1  3.0    0.000    0.000    2.022    2.022
 mp_sum_dm                         4398  7.7    1.745    1.959    1.745    1.959
 cp2k_distribution_to_z_slices       80  9.0    0.154    0.196    1.590    1.826
 scf_env_initial_rho_setup            1  4.0    0.000    0.000    1.757    1.784
 mp_sum_dv                        16886  8.7    1.674    1.726    1.674    1.726
 dbt_tas_estimate_result_nze        243 12.9    0.101    0.152    1.681    1.681
 calculate_rho_atom                 320  9.0    0.254    1.674    0.254    1.674
 transfer_rs2pw_90                   80  9.0    0.174    0.255    1.509    1.652
 pw_poisson_rebuild                  80  9.0    0.000    0.000    1.577    1.612
 ps_wavelet_create                    1 10.0    0.000    0.000    1.577    1.612
 RS_z_slice_distribution              1 11.0    0.102    0.112    1.577    1.612
 dbt_tas_distribution_new          1774 14.6    0.566    0.590    1.530    1.571
 calculate_vxc_atom                  80  8.0    0.026    0.218    1.456    1.456
 dbt_tas_mm_3N                       62 15.5    0.000    0.000    1.255    1.411
 reshape_mm_small                   486 14.4    0.026    0.027    1.311    1.359
 fft_wrap_pw1pw2_90                 160 10.5    0.016    0.025    1.059    1.339
 compute_V_xc                         1  7.0    0.000    0.000    1.335    1.335
 reshape_mm_compatible              486 14.4    0.006    0.007    1.214    1.264
 change_split                       729 14.9    0.002    0.003    1.188    1.238
 gaVxcgb_GC                         316  9.0    0.022    1.168    0.022    1.168
 mp_sum_l                          3105 13.7    0.785    1.123    0.785    1.123
 abc_contract_xsmm               118800 10.6    0.449    1.097    0.449    1.097
 mp_bcast_i                        2211 13.1    1.091    1.094    1.091    1.094
 fm_to_local_tensor                 152  8.0    0.002    0.002    1.031    1.036
 dbt_copy                           456 10.1    0.005    0.005    0.707    1.013
 transfer_pw2rs_30                   80 12.0    0.176    0.215    0.671    1.002
 parallel_gemm_cfm                  283 10.4    0.000    0.000    0.859    0.926
 parallel_gemm_cfm_cosma            283 11.4    0.859    0.926    0.859    0.926
 qs_energies_init_hamiltonians        1  3.0    0.000    0.000    0.909    0.909
 xc_functional_eval                 711 10.8    0.001    0.001    0.560    0.905
 pbe_lda_eval                       711 11.8    0.560    0.904    0.560    0.904
 parallel_gemm_fm_cosma             342  8.2    0.853    0.897    0.853    0.897
 build_core_hamiltonian_matrix        1  4.0    0.000    0.000    0.890    0.890
 overlap_condnum                      1  5.0    0.000    0.000    0.887    0.889
 transfer_rs2pw_30                   80  9.0    0.332    0.355    0.667    0.886
 grid_integrate_task_list            80 10.0    0.079    0.882    0.079    0.882
 rs_gather_matrices                  80 10.0    0.002    0.009    0.412    0.873
 mp_waitall_2                      2978 16.0    0.603    0.849    0.603    0.849
 dbt_tas_reshape                    638 14.5    0.006    0.007    0.658    0.827
 mp_irecv_dm3                      3212 11.5    0.083    0.792    0.083    0.792
 mp_bcast_dm                       2881  9.0    0.719    0.726    0.719    0.726
 rs_grid_zero                       402 11.2    0.542    0.725    0.542    0.725
 dbt_reshape                        274 10.9    0.162    0.266    0.524    0.716
 dbm_reserve_blocks                2921 15.9    0.419    0.680    0.419    0.680
 dbt_tas_reserve_blocks_index      2435 15.0    0.002    0.003    0.415    0.675
 dbt_tas_copy                       486 13.8    0.165    0.291    0.396    0.672
 update_ks_atom                      80  8.0    0.026    0.046    0.624    0.648
 compute_cfm_W_ikp_freq_j            30 10.0    0.000    0.001    0.613    0.622
 arnoldi_conjugate_gradient           7  6.0    0.010    0.013    0.618    0.618
 mp_sendrecv_dv                   30560 10.0    0.405    0.614    0.405    0.614
 powell_optimize                 571343 11.0    0.570    0.600    0.570    0.600
 calc_pair_dist_radii                 1 10.0    0.305    0.339    0.553    0.589
 dbt_tas_mm_1N                      120 15.5    0.000    0.000    0.393    0.586
 pw_copy                           1195 10.6    0.490    0.569    0.490    0.569
 mp_comm_dup                       1379 17.6    0.471    0.563    0.471    0.564
 pw_derive                          714 11.3    0.499    0.561    0.499    0.561
 dbt_tas_mm_3T                      122 15.5    0.000    0.000    0.386    0.558
 setup_time_and_frequency_minim       1  7.0    0.000    0.000    0.520    0.543
 mp_max_i                          1028  6.7    0.329    0.539    0.329    0.539
 dbt_tas_communicate_buffer        1124 16.5    0.011    0.018    0.389    0.536
 mp_irecv_dv                      39268 12.6    0.095    0.523    0.095    0.523
 dbt_tas_replicate                  486 14.4    0.034    0.051    0.427    0.518
 mp_alltoall_i                     1917 14.5    0.491    0.512    0.491    0.512
 mp_comm_split_direct              1620 17.2    0.502    0.504    0.502    0.504
 copy_dbcsr_to_fm                   273  8.3    0.003    0.003    0.470    0.496
 pw_gather_p                        797 11.8    0.404    0.486    0.404    0.486
 dbcsr_complete_redistribute        583  9.4    0.012    0.015    0.441    0.470
 get_Sigma_x                          1  7.0    0.000    0.000    0.459    0.459
 compute_Sigma_x                      1  8.0    0.000    0.000    0.459    0.459
 calculate_rho_atom_coeff            80  6.0    0.037    0.064    0.448    0.448
 dbt_create_matrix                  152  9.0    0.001    0.001    0.428    0.435
 compute_QP_energies                  1  7.0    0.000    0.000    0.432    0.433
 fft_wrap_pw1pw2_30                 160 10.5    0.002    0.003    0.308    0.419
 dbcsr_sym_matrix_vector_mult      5523  7.0    0.025    0.027    0.385    0.407
 pw_scatter_p                       874 12.1    0.361    0.406    0.361    0.406
 dbt_tas_reserve_blocks_templat     972 14.4    0.002    0.012    0.235    0.390
 dbt_communicate_buffer             274 11.9    0.002    0.003    0.274    0.389
 mp_alltoall_z11v                   320 13.5    0.319    0.384    0.319    0.384
 integrate_four_center_getP          80 10.0    0.013    0.017    0.361    0.384
 dbt_distribution_new_expert        316 10.5    0.002    0.002    0.383    0.384
 pw_integral_ab_c1d_c1d_gs           80  9.0    0.099    0.116    0.232    0.367
 write_matrix                        91  8.0    0.000    0.000    0.303    0.365
 to_ikp_and_mo                       62  8.0    0.000    0.001    0.357    0.364
 mp_isend_dv                      41176 12.6    0.167    0.352    0.167    0.352
 G_occ_vir                          121  8.0    0.001    0.001    0.321    0.348
 pw_poisson_set                      81  9.0    0.001    0.002    0.331    0.346
 mp_cart_create                    3268 14.7    0.308    0.344    0.310    0.345
 fm_Gamma_ao_to_cfm_ikp_mo           62  9.0    0.000    0.000    0.331    0.340
 fm_write                           121  9.0    0.003    0.058    0.227    0.317
 mp_alltoall_i22                    862 10.4    0.287    0.314    0.287    0.314
 pw_copy_to_array                   797 11.8    0.237    0.305    0.237    0.305
 cp_fm_power                          3  8.7    0.001    0.001    0.286    0.290
 Vh_1c_gg_integrals                  80  8.0    0.007    0.216    0.206    0.283
 check_sparsity_3c                    1  7.0    0.000    0.000    0.273    0.273
 cp_fm_write_unformatted            125  9.9    0.228    0.243    0.231    0.269
 dbt_tas_replicate_communicate_     304 15.5    0.002    0.003    0.183    0.266
 multiply_fm_W_MIC_time_with_Mi       2  9.0    0.000    0.000    0.265    0.265
 dbt_tas_reshape_alltoall           638 15.5    0.001    0.001    0.240    0.244
 dbt_reserve_blocks_index           825 12.3    0.001    0.002    0.143    0.242
 dbcsr_rep_row_to_rep_col_vec      5523  8.0    0.009    0.011    0.101    0.238
 dbt_tas_reshape_buffer_fill        638 15.5    0.142    0.232    0.142    0.232
 offload_free_buffer                 88  8.5    0.074    0.225    0.074    0.225
 pw_copy_from_array                 874 12.1    0.134    0.225    0.134    0.225
 dbt_tas_reshape_buffer_obtain      638 15.5    0.106    0.142    0.153    0.217
 xz_to_yz                           160 11.0    0.005    0.007    0.182    0.207
 dbm_add                            486 14.4    0.099    0.207    0.099    0.207
 mp_cart_sub                        564 10.4    0.176    0.204    0.176    0.204
 pw_axpy                            795  9.3    0.168    0.196    0.168    0.196
 dbt_tas_merge                      182 14.2    0.023    0.040    0.164    0.192
 yz_to_xz                           160 14.0    0.007    0.010    0.149    0.190
 dbcsr_desymmetrize_deep            279  9.4    0.004    0.004    0.158    0.189
 get_l_sq_wghts_cos_tf_w_to_t         1  8.0    0.169    0.187    0.170    0.189
 get_l_sq_wghts_sin_tf_t_to_w         1  8.0    0.174    0.184    0.174    0.184
 transfer_pw2rs_10                   80 12.0    0.047    0.053    0.172    0.184
 calculate_rho0_atom                320  9.0    0.177    0.183    0.177    0.183
 get_l_sq_wghts_cos_tf_t_to_w         1  8.0    0.177    0.181    0.177    0.181
 cp_fm_symm                          79  7.0    0.169    0.180    0.169    0.180
 dbt_tas_replicate_alltoall         304 15.5    0.000    0.000    0.159    0.179
 integrate_four_center_dist_KS       80 10.0    0.013    0.017    0.176    0.177
 dbt_tas_reshape_communicate_bu     638 15.5    0.004    0.006    0.115    0.175
 dbcsr_col_vec_to_rep_row          5523  8.0    0.012    0.013    0.130    0.171
 cp_cfm_cholesky_decompose           35 10.7    0.155    0.162    0.155    0.162
 copy_fm_to_dbcsr                   310  8.5    0.001    0.001    0.135    0.159
 qs_init_subsys                       1  2.0    0.001    0.001    0.156    0.156
 dbt_reserve_blocks_index_array     516 12.0    0.001    0.001    0.080    0.149
 qs_env_setup                         1  3.0    0.000    0.000    0.148    0.149
 qs_env_rebuild_pw_env                2  3.5    0.000    0.000    0.147    0.148
 pw_env_rebuild                       1  5.0    0.000    0.000    0.147    0.148
 fft_wrap_pw1pw2_10                 160 10.5    0.001    0.001    0.135    0.146
 cp_cfm_geeig                         2  7.0    0.000    0.000    0.142    0.146
 pw_zero                            476 10.3    0.127    0.146    0.127    0.146
 mp_rank_compare                   1671 13.0    0.135    0.144    0.135    0.144
 calculate_dm_sparse                 79  6.0    0.000    0.000    0.132    0.141
 cp_dbcsr_plus_fm_fm_t               79  7.0    0.001    0.001    0.132    0.140
 transfer_rs2pw_10                   80  9.0    0.056    0.066    0.125    0.133
 integrate_four_center_load          80 10.0    0.000    0.000    0.086    0.133
 hfx_load_balance                     1 11.0    0.000    0.000    0.086    0.133
 pw_grid_setup                        4  6.0    0.000    0.000    0.124    0.125
 pw_grid_setup_internal               4  7.0    0.001    0.001    0.124    0.125
 dbcsr_add_d                       9240  7.4    0.003    0.003    0.027    0.124
 cp_cfm_cholesky_invert              31 11.0    0.120    0.123    0.120    0.123
 dbcsr_add_anytype                 9240  8.4    0.004    0.016    0.024    0.121
 hfx_load_balance_range               1 12.0    0.000    0.000    0.072    0.119
 dbt_tas_merge_communicate_buff     182 15.2    0.001    0.002    0.099    0.119
 dbcsr_multiply_generic              79  8.0    0.002    0.003    0.103    0.106
 dbt_crop                           212 11.0    0.030    0.054    0.057    0.105
 alloc_block_3c                     157 10.6    0.004    0.006    0.069    0.099
 dos_pdos_ldos                        1  5.0    0.000    0.000    0.093    0.098
 create_qs_kind_set                   1  2.0    0.000    0.000    0.096    0.096
 read_qs_kind                         4  3.0    0.018    0.043    0.096    0.096
 mp_sum_i                           648 14.2    0.073    0.084    0.073    0.084
 global_matrix_to_local_matrix      152  9.0    0.001    0.001    0.070    0.083
 dbcsr_finalize                   12043 11.1    0.007    0.025    0.025    0.080
 build_3c_integrals_put_dbcsr      3132 10.6    0.034    0.079    0.034    0.079
 parser_read_line                 18148  4.0    0.002    0.002    0.078    0.079
 cube_transpose_2                   160 11.0    0.002    0.002    0.034    0.078
 parser_read_line_low                31  5.0    0.001    0.011    0.076    0.077
 broadcast_input_information         31  6.0    0.003    0.003    0.075    0.076
 dbt_create_new                     158 10.0    0.001    0.002    0.067    0.076
 dbt_pgrid_create_expert            320 11.5    0.001    0.001    0.073    0.075
 mp_alltoall_i11v                  2028 10.4    0.035    0.070    0.035    0.070
 send_sizes_1                       152 10.0    0.000    0.000    0.058    0.069
 cp_fm_redistribute_end              85  8.1    0.036    0.069    0.036    0.069
 mp_bcast_dv                       5525  9.0    0.043    0.066    0.043    0.066
 rs_scatter_matrices                 80  7.0    0.001    0.004    0.015    0.061
 cp_fm_uplo_to_full                  88  9.1    0.036    0.060    0.036    0.060
 vxc_of_r_new                       632  9.0    0.000    0.009    0.001    0.060
 fill_fm_Sigma_c_Gamma_time           1  8.0    0.000    0.000    0.059    0.059
 create_and_init_bs_env               1  5.0    0.000    0.000    0.055    0.055
 dbt_nd_mp_comm                     152 10.0    0.000    0.000    0.053    0.055
 compute_MinvVsqrt_Vsqrt              1  9.0    0.000    0.000    0.045    0.054
 mp_bcast_b_src                     164  7.6    0.015    0.053    0.015    0.053
 compute_fm_chi_Gamma_freq           30 10.0    0.000    0.000    0.049    0.053
 dbt_copy_nocomm                     30 10.0    0.015    0.032    0.029    0.053
 dbt_tas_mp_comm                    243 12.9    0.002    0.002    0.050    0.051
 mp_bcast_i_src                     124  7.0    0.049    0.050    0.049    0.050
 diagonalize_ks_matrix                1  6.0    0.000    0.000    0.050    0.050
 cp_fm_geeig_canon                    1  7.0    0.000    0.000    0.050    0.050
 dbcsr_copy                       22777  7.5    0.019    0.033    0.035    0.048
 dbcsr_dot                          159  8.0    0.001    0.002    0.020    0.048
 mp_isendrecv_dv                  61120 12.0    0.024    0.047    0.024    0.047
 pw_grid_remap                        4  8.0    0.001    0.001    0.045    0.046
 multiply_cannon                     79  9.0    0.005    0.005    0.042    0.046
 make_m2s                           158  9.0    0.002    0.002    0.044    0.046
 mp_comm_free                      6888 13.6    0.041    0.046    0.041    0.046
 mp_sum_im3                           6  9.5    0.044    0.045    0.044    0.045
 local_dbt_to_global_mat             91  8.0    0.000    0.000    0.041    0.045
 dbcsr_iterator_start             70266  8.9    0.024    0.034    0.029    0.044
 get_fft_scratch                   1672 12.9    0.005    0.006    0.016    0.044
 calculate_first_density_matrix       1  5.0    0.000    0.000    0.017    0.044
 calculate_atomic_block_dm            1  6.0    0.001    0.001    0.017    0.044
 scf_post_calculation_gpw             1  3.0    0.000    0.000    0.043    0.043
 write_available_results              1  4.0    0.000    0.000    0.043    0.043
 write_mo_free_results                1  5.0    0.001    0.002    0.043    0.043
 hybrid_alltoall_any                437 11.0    0.002    0.002    0.012    0.042
 cp_cfm_triangular_multiply           6  8.0    0.030    0.041    0.030    0.041
 dbt_tas_merge_alltoall             182 15.2    0.000    0.000    0.038    0.039
 dbcsr_merge_all                  10462 12.2    0.010    0.034    0.013    0.037
 scale_and_distribute               160 10.0    0.028    0.037    0.028    0.037
 cube_transpose_1                   160 14.0    0.002    0.004    0.022    0.037
 make_images                        158 10.0    0.002    0.003    0.032    0.033
 multiply_cannon_loop                79 10.0    0.003    0.004    0.028    0.033
 check_for_restart_files              1  7.0    0.029    0.031    0.029    0.031
 pw_grid_sort                         4  8.0    0.021    0.021    0.029    0.031
 mp_sum_im                           13  8.4    0.029    0.030    0.029    0.030
 cp_fm_redistribute_start            85  8.1    0.005    0.006    0.021    0.030
 dbt_create_template                860  9.9    0.005    0.029    0.005    0.029
 local_matrix_to_global_matrix       91  9.0    0.000    0.000    0.016    0.028
 dbcsr_iterator_stop              70266  8.9    0.017    0.023    0.021    0.028
 make_images_sizes                  158 11.0    0.000    0.000    0.022    0.027
 mp_alltoall_i44                    158 12.0    0.022    0.026    0.022    0.026
 dbt_tas_create_new                2345 14.5    0.009    0.026    0.009    0.026
 dbt_reserve_blocks_template         30 11.0    0.000    0.000    0.014    0.026
 mp_recv_dv                        3360 10.9    0.000    0.026    0.000    0.026
 dbcsr_create_new                 25893  8.8    0.017    0.019    0.023    0.026
 mp_bcast_am_src                     31  7.0    0.020    0.022    0.022    0.024
 mp_send_dv                         125 10.9    0.003    0.024    0.003    0.024
 RI_2c_integral_mat                   4  9.8    0.000    0.000    0.023    0.023
 mp_sum_iv                           35  7.8    0.021    0.022    0.021    0.022
 compute_proj_mo_on_kind              1  6.0    0.000    0.000    0.021    0.021
 multiply_cannon_metrocomm3        1896 11.0    0.002    0.002    0.013    0.021
 pw_scale                           317  9.5    0.017    0.021    0.017    0.021
 create_fast_row_vec_access       11046  8.0    0.010    0.013    0.017    0.021
 hirshfeld_integration                1  6.0    0.000    0.003    0.020    0.020
 qs_env_update_s_mstruct              1  4.0    0.000    0.000    0.013    0.019
 qs_create_task_list                  1  5.0    0.000    0.000    0.013    0.019
 generate_qs_task_list                1  6.0    0.000    0.000    0.013    0.019
 distribute_tasks                     1  7.0    0.000    0.000    0.013    0.019
 create_fast_col_vec_access       11046  8.0    0.010    0.011    0.017    0.019
 -------------------------------------------------------------------------------

 The number of warnings for this run is : 1
 
 -------------------------------------------------------------------------------
  **** **** ******  **  PROGRAM ENDED AT                 2025-10-25 03:19:04.501
 ***** ** ***  *** **   PROGRAM RAN ON                                    cn1302
 **    ****   ******    PROGRAM RAN BY                                  metdyn02
 ***** **    ** ** **   PROGRAM PROCESS ID                               2088150
  **** **  *******  **  PROGRAM STOPPED IN /scratch/hpc-prf-metdyn/metdyn02_Remi
                                           /04_mol/Benchmark_mol_low_scal/aUKBqs
                                           EOTmq69kFe5R_nOg/5k_set_final_qzvp/ET
                                           OLAA/DZVP/1e-4/7.0
