&GLOBAL
  PROJECT  MoS2
  PRINT_LEVEL MEDIUM
  RUN_TYPE ENERGY
  &TIMINGS
     THRESHOLD 0.0001
  &END
  TRACE
  TRACE_MASTER
  TRACE_ROUTINES compute_chi dbt_create_2c_R dbt_create_3c_R1_R2 dbt_create G_occ_vir contract_M_occ_vir_to_chi local_dbt_to_global_fm
&END GLOBAL
&FORCE_EVAL
  METHOD Quickstep
  &PROPERTIES
  &TDDFPT                          ! input section for TDDFPT
       KERNEL FULL                       ! specification of the underlying kernel matrix K
                                         ! FULL kernel is for GGA and hybrid functional computations
                                         ! sTDA kernel is referring to a semi-empirical sTDA computation
       NSTATES 20                      ! specifies the number of excited states to be computed
       MAX_ITER   100                  ! number of iterations for the Davidson algorithm
       CONVERGENCE [eV] 1.0e-6         ! convergence threshold in eV
       &XC                            ! If choosing kernel FULL, the underlying functional can be
        &XC_FUNCTIONAL PBE0             ! specified by adding an XC section
        &END XC_FUNCTIONAL              ! The functional can be chosen independently from the chosen
  	 &HF
          &MEMORY 
            MAX_MEMORY 8000
  	   &END MEMORY
  	 &END HF
       &END XC                        ! GS functional except when choosing ADMM 
    &END TDDFPT
    &END PROPERTIES
  &DFT
    BASIS_SET_FILE_NAME /hppfs/scratch/04/di38fab/04_TMD/BASIS_AUG_MOLOPT/BASIS_ALL_MOLOPT_AUG_for_excited_states
    BASIS_SET_FILE_NAME /hppfs/scratch/04/di38fab/04_TMD/BASIS_AUG_MOLOPT/BASIS_ALL_MOLOPT_AUG_for_excited_states_RI
    BASIS_SET_FILE_NAME /hppfs/scratch/04/di38fab/04_TMD/BASIS_AUG_MOLOPT/aug-cc-pVZ
    BASIS_SET_FILE_NAME /hppfs/scratch/04/di38fab/04_TMD/BASIS_AUG_MOLOPT/aug-cc-pVZ-TOTRI
    BASIS_SET_FILE_NAME /hppfs/scratch/04/di38fab/04_TMD/BASIS_AUG_MOLOPT/cc-pVZ
    BASIS_SET_FILE_NAME /hppfs/scratch/04/di38fab/04_TMD/BASIS_AUG_MOLOPT/cc-pVZ-RI
    BASIS_SET_FILE_NAME /hppfs/scratch/04/di38fab/04_TMD/BASIS_AUG_MOLOPT/BASIS_MOLOPT_UZH
    SORT_BASIS EXP
    POTENTIAL_FILE_NAME  /hppfs/work/pn36zo/di38fab/cp2k/data/ALL_POTENTIALS 
    CHARGE 0
    &MGRID
      CUTOFF  500
      REL_CUTOFF  100
    &END MGRID
    &POISSON
      PERIODIC NONE
      POISSON_SOLVER WAVELET
    &END POISSON
    &QS
      METHOD GAPW
      EPS_DEFAULT 1.0E-12
      EPS_PGF_ORB 1.0E-12
    &END QS
    &SCF
      SCF_GUESS ATOMIC
      EPS_SCF 1.0E-6
      MAX_SCF 500
      &PRINT
        &RESTART ON
        &END
      &END
      ADDED_MOS -1
      &MIXING
          METHOD BROYDEN_MIXING
          ALPHA 0.1
          BETA 1.5
          NBROYDEN 8
      &END
      CHOLESKY OFF
    &END SCF
    &XC
      &XC_FUNCTIONAL PBE0
      &END XC_FUNCTIONAL
      &HF
         &MEMORY
          MAX_MEMORY 8000
         &END MEMORY
      &END HF
!      &WF_CORRELATION
!      	&RI_RPA
!	  QUADRATURE_POINTS 100
!      	  &GW
!	    CORR_MOS_OCC -1
!	    CORR_MOS_VIRT -1
!	    &BSE
!              BSE_DIAG_METHOD FULLDIAG
!              TDA OFF
!            &END BSE 
!          &END GW	
!        &END RI_RPA
!      &END WF_CORRELATION
    &END XC
    &PRINT
    &OVERLAP_CONDITION ON
    DIAGONALIZATION T
    &END OVERLAP_CONDITION
    &END PRINT
  &END DFT
    &SUBSYS
    &CELL
      ABC                 30 30 30
      ALPHA_BETA_GAMMA    90 90 90
      PERIODIC NONE
    &END CELL

     &KIND Cl
      BASIS_SET ORB QZVPP-MOLOPT-GGA-ae
      BASIS_SET RI_AUX aug-cc-pV5Z-OPTRI
      POTENTIAL ALL
     &END KIND

     &KIND S
      BASIS_SET ORB QZVPP-MOLOPT-GGA-ae
      BASIS_SET RI_AUX aug-cc-pV5Z-OPTRI
      POTENTIAL ALL
     &END KIND

     &KIND N
      BASIS_SET ORB QZVPP-MOLOPT-GGA-ae
      BASIS_SET RI_AUX aug-cc-pV5Z-OPTRI
      POTENTIAL ALL
     &END KIND

     &KIND C
      BASIS_SET ORB QZVPP-MOLOPT-GGA-ae
      BASIS_SET RI_AUX aug-cc-pV5Z-OPTRI
      POTENTIAL ALL
     &END KIND

     &KIND H
      BASIS_SET ORB QZVPP-MOLOPT-GGA-ae
      BASIS_SET RI_AUX aug-cc-pV5Z-OPTRI
      POTENTIAL ALL
     &END KIND

    




    &TOPOLOGY
     &CENTER_COORDINATES T
     &END CENTER_COORDINATES
    &END TOPOLOGY


    &COORD
     Cl 24.25269949 22.22930136 32.86978692
     S 29.69507462 17.51244344 32.87586777
     N 29.34687349 19.69148450 31.15770821
     N 31.21387437 18.32434082 30.94467322
     C 27.41045730 19.75576224 32.69323503
     C 30.09013500 18.61049412 31.56718843
     C 31.14446763 16.63226148 32.53901177
     C 31.80038004 17.21664033 31.49140634
     H 27.75629371 18.89462875 33.25872278
     H 31.41261442 15.76037872 33.12459343
     H 32.74104678 16.86014841 31.07711128
     Cl 28.51803718 22.02156337 29.56741141
     C 27.64121242 21.36835107 30.92543739
     H 26.09121751 22.84610712 30.75787468
     C 28.15834109 20.23712894 31.60389417
     C 26.45449999 21.97981906 31.30521920
     C 25.74143195 21.46930885 32.39025814
     C 26.21863584 20.36021180 33.08328486
     H 29.77347698 20.16683841 30.36310330
     H 25.66248516 19.96447928 33.93043368
&END COORD
  &END SUBSYS
&END FORCE_EVAL
