&GLOBAL
  PROJECT  MoS2
  PRINT_LEVEL MEDIUM
  RUN_TYPE ENERGY
  &TIMINGS
     THRESHOLD 0.0001
  &END
  TRACE
  TRACE_MASTER
  TRACE_ROUTINES compute_chi dbt_create_2c_R dbt_create_3c_R1_R2 dbt_create G_occ_vir contract_M_occ_vir_to_chi local_dbt_to_global_fm
&END GLOBAL
&FORCE_EVAL
  METHOD Quickstep
   &DFT
    BASIS_SET_FILE_NAME /scratch/hpc-prf-metdyn/metdyn02_Remi/BASIS_AUG_MOLOPT/BASIS_ALL_MOLOPT_AUG_for_excited_states
    BASIS_SET_FILE_NAME /scratch/hpc-prf-metdyn/metdyn02_Remi/BASIS_AUG_MOLOPT/BASIS_ALL_MOLOPT_AUG_for_excited_states_RI
    BASIS_SET_FILE_NAME /scratch/hpc-prf-metdyn/metdyn02_Remi/BASIS_AUG_MOLOPT/aug-cc-pVZ
    BASIS_SET_FILE_NAME /scratch/hpc-prf-metdyn/metdyn02_Remi/BASIS_AUG_MOLOPT/aug-cc-pVZ-TOTRI
    SORT_BASIS EXP
    POTENTIAL_FILE_NAME  /pc2/groups/hpc-prf-metdyn/metdyn02_Remi/cp2k/cp2k/data/ALL_POTENTIALS 
    CHARGE 0
    &MGRID
      CUTOFF  500
      REL_CUTOFF  100
    &END MGRID
    &POISSON
      PERIODIC NONE
      POISSON_SOLVER WAVELET
    &END POISSON
    &QS
      METHOD GAPW
      EPS_DEFAULT 1.0E-12
      EPS_PGF_ORB 1.0E-12
    &END QS
    &SCF
      SCF_GUESS ATOMIC
      EPS_SCF 1.0E-6
      MAX_SCF 500
      &PRINT
        &RESTART ON
        &END
      &END
      ADDED_MOS -1
      &MIXING
          METHOD BROYDEN_MIXING
          ALPHA 0.1
          BETA 1.5
          NBROYDEN 8
      &END
      CHOLESKY OFF
    &END SCF
    &XC
      &XC_FUNCTIONAL PBE0
      &END XC_FUNCTIONAL
      &HF
         &MEMORY
          MAX_MEMORY 64000
         &END MEMORY
      &END HF
    &END XC
    &PRINT
    &OVERLAP_CONDITION ON
    DIAGONALIZATION T
    &END OVERLAP_CONDITION
    &END PRINT
  &END DFT
  &PROPERTIES
    &BANDSTRUCTURE
      &GW
        NUM_TIME_FREQ_POINTS         30
        MEMORY_PER_PROC              64
        EPS_FILTER              1.0E-11
        REGULARIZATION_RI        1.0E-2
CUTOFF_RADIUS_RI            3.0
      &END
    &END
  &END PROPERTIES

    &SUBSYS
    &CELL
      ABC                 30 30 30
      ALPHA_BETA_GAMMA    90 90 90
      PERIODIC NONE
    &END CELL

     &KIND C
      BASIS_SET ORB aug-SZV-MOLOPT-ae
      BASIS_SET RI_AUX RI_aug-SZV-MOLOPT-ae_N_RI_048_s_p_d_f_g_h_i_6_3_2_2_1_0_0_error_8.4e-05
      POTENTIAL ALL
     &END KIND

     &KIND H
      BASIS_SET ORB aug-SZV-MOLOPT-ae
      BASIS_SET RI_AUX RI_aug-SZV-MOLOPT-ae_N_RI_007_s_p_d_f_g_h_i_4_1_0_0_0_0_0_error_4.4e-05
      POTENTIAL ALL
     &END KIND

     &KIND N
      BASIS_SET ORB aug-SZV-MOLOPT-ae
      BASIS_SET RI_AUX RI_aug-SZV-MOLOPT-ae_N_RI_043_s_p_d_f_g_h_i_6_5_3_1_0_0_0_error_2.2e-05
      POTENTIAL ALL
     &END KIND

     &KIND S
      BASIS_SET ORB aug-SZV-MOLOPT-ae
      BASIS_SET RI_AUX RI_aug-SZV-MOLOPT-ae_N_RI_072_s_p_d_f_g_h_i_7_6_3_2_2_0_0_error_1.9e-04
      POTENTIAL ALL
     &END KIND

     &KIND O
      BASIS_SET ORB aug-SZV-MOLOPT-ae
      BASIS_SET RI_AUX RI_aug-SZV-MOLOPT-ae_N_RI_054_s_p_d_f_g_h_i_7_6_3_2_0_0_0_error_5.3e-05
      POTENTIAL ALL
     &END KIND

    




    &TOPOLOGY
     &CENTER_COORDINATES T
     &END CENTER_COORDINATES
    &END TOPOLOGY


    &COORD
     C 33.23516986 48.16060104 63.01627695
     C 35.00924121 46.78878790 62.94167982
     H 35.39700274 45.81242200 62.64507304
     C 35.83412390 47.70064802 63.54930548
     H 36.87886669 47.47017327 63.74491628
     C 35.37423980 49.00349082 63.96104278
     C 32.06104867 50.24475228 63.55309153
     C 31.07947537 51.35940659 63.74215623
     H 30.22955899 50.97355821 64.32832736
     H 30.66137065 51.62053029 62.75635178
     C 31.67642694 52.59523977 64.41471316
     H 32.50309882 53.00959961 63.82576633
     H 32.06985365 52.35685277 65.40983781
     H 30.90489923 53.36742448 64.52188901
     N 33.68793415 46.99134448 62.65773487
     N 33.96000020 49.16009006 63.63218291
     N 33.30069356 50.31433597 63.92687750
     S 31.59427861 48.72610376 62.79388626
     O 35.98887594 49.90204468 64.50450972
&END COORD
  &END SUBSYS
&END FORCE_EVAL
