SIRIUS 7.7.0, git hash: https://api.github.com/repos/electronic-structure/SIRIUS/git/ref/tags/v7.7.0
 DBCSR| CPU Multiplication driver                                           BLAS (U)
 DBCSR| Multrec recursion limit                                              512 (U)
 DBCSR| Multiplication stack size                                           1000 (D)
 DBCSR| Maximum elements for images                                    UNLIMITED (U)
 DBCSR| Multiplicative factor virtual images                                   1 (U)
 DBCSR| Use multiplication densification                                       T (D)
 DBCSR| Multiplication size stacks                                             3 (U)
 DBCSR| Use memory pool for CPU allocation                                     F (U)
 DBCSR| Number of 3D layers                                               SINGLE (U)
 DBCSR| Use MPI memory allocation                                              F (U)
 DBCSR| Use RMA algorithm                                                      F (U)
 DBCSR| Use Communication thread                                               T (U)
 DBCSR| Communication thread load                                             75 (D)
 DBCSR| MPI: My process id                                                     0
 DBCSR| MPI: Number of processes                                             192
 DBCSR| OMP: Current number of threads                                         4
 DBCSR| OMP: Max number of threads                                             4
 DBCSR| Split modifier for TAS multiplication algorithm                  1.0E+00 (U)


  **** **** ******  **  PROGRAM STARTED AT               2025-10-25 06:44:00.019
 ***** ** ***  *** **   PROGRAM STARTED ON                                cn1302
 **    ****   ******    PROGRAM STARTED BY                              metdyn02
 ***** **    ** ** **   PROGRAM PROCESS ID                               2208548
  **** **  *******  **  PROGRAM STARTED IN /scratch/hpc-prf-metdyn/metdyn02_Remi
                                           /04_mol/Benchmark_mol_low_scal/aUKBqs
                                           EOTmq69kFe5R_nOg/5k_set_final_qzvp/KA
                                           DZOE/DZVP/1e-2/9.0

 CP2K| version string:                 CP2K version 2025.2 (Development Version)
 CP2K| source code revision number:                                  git:2a4e9c4
 CP2K| cp2kflags: omp libint fftw3 libxc libgrpp elpa parallel scalapack mpi_f08
 CP2K|             cosma xsmm plumed2 spglib sirius libvori libbqb libvdwxc hdf5
 CP2K| is freely available from                            https://www.cp2k.org/
 CP2K| Program compiled at                      Fri Oct 24 04:52:17 PM CEST 2025
 CP2K| Program compiled on                                                login1
 CP2K| Program compiled for                                                local
 CP2K| Data directory path    /opt/software/pc2/EB-SW/software/CP2K/2025.2-foss-
 CP2K| Input file name                                                    GW.inp

 GLOBAL| Force Environment number                                              1
 GLOBAL| Basis set file name            /pc2/groups/hpc-prf-metdyn/metdyn02_Remi
 GLOBAL| Potential file name            /pc2/groups/hpc-prf-metdyn/metdyn02_Remi
 GLOBAL| MM Potential file name                                     MM_POTENTIAL
 GLOBAL| Coordinate file name                                      __STD_INPUT__
 GLOBAL| Method name                                                        CP2K
 GLOBAL| Project name                                                       MoS2
 GLOBAL| Run type                                                         ENERGY
 GLOBAL| FFT library                                                       FFTW3
 GLOBAL| Diagonalization library                                            ELPA
 GLOBAL| Cholesky decomposition library                                ScaLAPACK
 GLOBAL| DGEMM library                                                      BLAS
 GLOBAL| Minimum number of eigenvectors for ELPA usage                        16
 GLOBAL| Orthonormality check for eigenvectors                          DISABLED
 GLOBAL| Matrix multiplication library                                     COSMA
 GLOBAL| All-to-all communication in single precision                          F
 GLOBAL| FFTs using library dependent lengths                                  F
 GLOBAL| Grid backend                                                       AUTO
 GLOBAL| Global print level                                               MEDIUM
 GLOBAL| MPI I/O enabled                                                       T
 GLOBAL| Total number of message passing processes                           192
 GLOBAL| Number of distributed systems (nodes)                                 4
 GLOBAL| Number of threads for this process                                    4
 GLOBAL| This output is from process                                           0
 GLOBAL| OpenMP stack size per thread (OMP_STACKSIZE)                    default
 GLOBAL| CPU model name                          AMD EPYC 9655 96-Core Processor
 GLOBAL| CPUID                                                              1003

 MEMORY| system memory details [Kb]
 MEMORY|                        rank 0           min           max       average
 MEMORY| MemTotal            791039084     791039048     791039104     791039073
 MEMORY| MemFree             744277076     744277076     752783852     749163427
 MEMORY| Buffers                  1352          1352          3168          2451
 MEMORY| Cached                4120980       4120980       8221600       7043357
 MEMORY| Slab                  6283352       1635560       6283352       3077217
 MEMORY| SReclaimable           813704        483032        948516        789645
 MEMORY| MemLikelyFree       749213112     749213112     760969188     756998880


 *** Fundamental physical constants (SI units) ***

 *** Literature: B. J. Mohr and B. N. Taylor,
 ***             CODATA recommended values of the fundamental physical
 ***             constants: 2006, Web Version 5.1
 ***             http://physics.nist.gov/constants

 Speed of light in vacuum [m/s]                             2.99792458000000E+08
 Magnetic constant or permeability of vacuum [N/A**2]       1.25663706143592E-06
 Electric constant or permittivity of vacuum [F/m]          8.85418781762039E-12
 Planck constant (h) [J*s]                                  6.62606896000000E-34
 Planck constant (h-bar) [J*s]                              1.05457162825177E-34
 Elementary charge [C]                                      1.60217648700000E-19
 Electron mass [kg]                                         9.10938215000000E-31
 Electron g factor [ ]                                     -2.00231930436220E+00
 Proton mass [kg]                                           1.67262163700000E-27
 Fine-structure constant                                    7.29735253760000E-03
 Rydberg constant [1/m]                                     1.09737315685270E+07
 Avogadro constant [1/mol]                                  6.02214179000000E+23
 Boltzmann constant [J/K]                                   1.38065040000000E-23
 Atomic mass unit [kg]                                      1.66053878200000E-27
 Bohr radius [m]                                            5.29177208590000E-11

 *** Conversion factors ***

 [u] -> [a.u.]                                              1.82288848426455E+03
 [Angstrom] -> [Bohr] = [a.u.]                              1.88972613288564E+00
 [a.u.] = [Bohr] -> [Angstrom]                              5.29177208590000E-01
 [a.u.] -> [s]                                              2.41888432650478E-17
 [a.u.] -> [fs]                                             2.41888432650478E-02
 [a.u.] -> [J]                                              4.35974393937059E-18
 [a.u.] -> [N]                                              8.23872205491840E-08
 [a.u.] -> [K]                                              3.15774647902944E+05
 [a.u.] -> [kJ/mol]                                         2.62549961709828E+03
 [a.u.] -> [kcal/mol]                                       6.27509468713739E+02
 [a.u.] -> [Pa]                                             2.94210107994716E+13
 [a.u.] -> [bar]                                            2.94210107994716E+08
 [a.u.] -> [atm]                                            2.90362800883016E+08
 [a.u.] -> [eV]                                             2.72113838565563E+01
 [a.u.] -> [Hz]                                             6.57968392072181E+15
 [a.u.] -> [1/cm] (wave numbers)                            2.19474631370540E+05
 [a.u./Bohr**2] -> [1/cm]                                   5.14048714338585E+03
 

 CELL_TOP| Volume [angstrom^3]:                                     27000.000000
 CELL_TOP| Vector a [angstrom    30.000     0.000     0.000   |a| =    30.000000
 CELL_TOP| Vector b [angstrom     0.000    30.000     0.000   |b| =    30.000000
 CELL_TOP| Vector c [angstrom     0.000     0.000    30.000   |c| =    30.000000
 CELL_TOP| Angle (b,c), alpha [degree]:                                90.000000
 CELL_TOP| Angle (a,c), beta  [degree]:                                90.000000
 CELL_TOP| Angle (a,b), gamma [degree]:                                90.000000
 CELL_TOP| Numerically orthorhombic:                                         YES
 CELL_TOP| Periodicity                                                      NONE

 GENERATE|  Preliminary Number of Bonds generated:                             0
 GENERATE|  Achieved consistency in connectivity generation.

 CELL| Volume [angstrom^3]:                                         27000.000000
 CELL| Vector a [angstrom]:      30.000     0.000     0.000   |a| =    30.000000
 CELL| Vector b [angstrom]:       0.000    30.000     0.000   |b| =    30.000000
 CELL| Vector c [angstrom]:       0.000     0.000    30.000   |c| =    30.000000
 CELL| Angle (b,c), alpha [degree]:                                    90.000000
 CELL| Angle (a,c), beta  [degree]:                                    90.000000
 CELL| Angle (a,b), gamma [degree]:                                    90.000000
 CELL| Numerically orthorhombic:                                             YES
 CELL| Periodicity                                                          NONE

 CELL_REF| Volume [angstrom^3]:                                     27000.000000
 CELL_REF| Vector a [angstrom    30.000     0.000     0.000   |a| =    30.000000
 CELL_REF| Vector b [angstrom     0.000    30.000     0.000   |b| =    30.000000
 CELL_REF| Vector c [angstrom     0.000     0.000    30.000   |c| =    30.000000
 CELL_REF| Angle (b,c), alpha [degree]:                                90.000000
 CELL_REF| Angle (a,c), beta  [degree]:                                90.000000
 CELL_REF| Angle (a,b), gamma [degree]:                                90.000000
 CELL_REF| Numerically orthorhombic:                                         YES
 CELL_REF| Periodicity                                                      NONE

 *******************************************************************************
 *******************************************************************************
 **                                                                           **
 **     #####                         ##              ##                      **
 **    ##   ##            ##          ##              ##                      **
 **   ##     ##                       ##            ######                    **
 **   ##     ##  ##   ##  ##   #####  ##  ##   ####   ##    #####    #####    **
 **   ##     ##  ##   ##  ##  ##      ## ##   ##      ##   ##   ##  ##   ##   **
 **   ##  ## ##  ##   ##  ##  ##      ####     ###    ##   ######   ######    **
 **    ##  ###   ##   ##  ##  ##      ## ##      ##   ##   ##       ##        **
 **     #######   #####   ##   #####  ##  ##  ####    ##    #####   ##        **
 **           ##                                                    ##        **
 **                                                                           **
 **                                                ... make the atoms dance   **
 **                                                                           **
 **            Copyright (C) by CP2K developers group (2000-2025)             **
 **                      J. Chem. Phys. 152, 194103 (2020)                    **
 **                                                                           **
 *******************************************************************************

 DFT| Spin restricted Kohn-Sham (RKS) calculation                            RKS
 DFT| Multiplicity                                                             1
 DFT| Number of spin states                                                    1
 DFT| Charge                                                                   0
 DFT| Self-interaction correction (SIC)                                       NO
 DFT| Cutoffs: density                                              1.000000E-10
 DFT|          gradient                                             1.000000E-10
 DFT|          tau                                                  1.000000E-10
 DFT|          cutoff_smoothing_range                               0.000000E+00
 DFT| XC density smoothing                                                  NONE
 DFT| XC derivatives                                                          PW

 FUNCTIONAL| PBE:
 FUNCTIONAL| J.P.Perdew, K.Burke, M.Ernzerhof, Phys. Rev. Letter, vol. 77, n 18,
 FUNCTIONAL|  pp. 3865-3868, (1996)sx=0.750sc=1.000{spin unpolarized}           


 QS| Method:                                                                GAPW
 QS| Density plane wave grid type                        NON-SPHERICAL FULLSPACE
 QS| Number of grid levels:                                                    4
 QS| Density cutoff [a.u.]:                                                250.0
 QS| Multi grid cutoff [a.u.]: 1) grid level                               250.0
 QS|                           2) grid level                                83.3
 QS|                           3) grid level                                27.8
 QS|                           4) grid level                                 9.3
 QS| Grid level progression factor:                                          3.0
 QS| Relative density cutoff [a.u.]:                                        50.0
 QS| Interaction thresholds: eps_pgf_orb:                                1.0E-12
 QS|                         eps_filter_matrix:                          0.0E+00
 QS|                         eps_core_charge:                            1.0E-14
 QS|                         eps_rho_gspace:                             1.0E-12
 QS|                         eps_rho_rspace:                             1.0E-12
 QS|                         eps_gvg_rspace:                             1.0E-06
 QS|                         eps_ppl:                                    1.0E-02
 QS|                         eps_ppnl:                                   1.0E-08
 QS| GAPW|      One center basis from orbital basis primitives
 QS| GAPW|                   eps_fit:                                    1.0E-04
 QS| GAPW|                   eps_iso:                                    1.0E-12
 QS| GAPW|                   eps_svd:                                    1.0E-08
 QS| GAPW|                   eps_cpc:                                    1.0E-12
 QS| GAPW|   atom-r-grid: quadrature:                                     GC_LOG
 QS| GAPW|      atom-s-grid:  max l :                                          6
 QS| GAPW|      max_l_rho0 :                                                   2


 ATOMIC KIND INFORMATION

  1. Atomic kind: O                                     Number of atoms:       2

     Orbital Basis Set                                        aug-DZVP-MOLOPT-ae

       Number of orbital shell sets:                                           2
       Number of orbital shells:                                              10
       Number of primitive Cartesian functions:                               12
       Number of Cartesian basis functions:                                   35
       Number of spherical basis functions:                                   30
       Norm type:                                                              2

       Normalised Cartesian orbitals:

                        Set   Shell   Orbital            Exponent    Coefficient

                          1       1    2s                0.090000       0.120905
                                                         0.191936      -0.019521
                                                         0.750068       0.059582
                                                         2.907977       0.000000
                                                        16.368686       0.000000

                          1       2    3px               0.090000       0.000000
                                                         0.191936       0.023686
                                                         0.750068       0.626550
                                                         2.907977       2.082711
                                                        16.368686       3.596544
                          1       2    3py               0.090000       0.000000
                                                         0.191936       0.023686
                                                         0.750068       0.626550
                                                         2.907977       2.082711
                                                        16.368686       3.596544
                          1       2    3pz               0.090000       0.000000
                                                         0.191936       0.023686
                                                         0.750068       0.626550
                                                         2.907977       2.082711
                                                        16.368686       3.596544

                          1       3    4px               0.090000       0.000000
                                                         0.191936       0.196557
                                                         0.750068      -0.157257
                                                         2.907977      -0.566756
                                                        16.368686      -1.323495
                          1       3    4py               0.090000       0.000000
                                                         0.191936       0.196557
                                                         0.750068      -0.157257
                                                         2.907977      -0.566756
                                                        16.368686      -1.323495
                          1       3    4pz               0.090000       0.000000
                                                         0.191936       0.196557
                                                         0.750068      -0.157257
                                                         2.907977      -0.566756
                                                        16.368686      -1.323495

                          1       4    5px               0.090000       0.020606
                                                         0.191936       0.124186
                                                         0.750068       0.098287
                                                         2.907977       0.000000
                                                        16.368686       0.000000
                          1       4    5py               0.090000       0.020606
                                                         0.191936       0.124186
                                                         0.750068       0.098287
                                                         2.907977       0.000000
                                                        16.368686       0.000000
                          1       4    5pz               0.090000       0.020606
                                                         0.191936       0.124186
                                                         0.750068       0.098287
                                                         2.907977       0.000000
                                                        16.368686       0.000000

                          1       5    4dx2              0.090000       0.000000
                                                         0.191936       0.030414
                                                         0.750068       0.724129
                                                         2.907977       1.586204
                                                        16.368686       1.487256
                          1       5    4dxy              0.090000       0.000000
                                                         0.191936       0.052678
                                                         0.750068       1.254227
                                                         2.907977       2.747386
                                                        16.368686       2.576002
                          1       5    4dxz              0.090000       0.000000
                                                         0.191936       0.052678
                                                         0.750068       1.254227
                                                         2.907977       2.747386
                                                        16.368686       2.576002
                          1       5    4dy2              0.090000       0.000000
                                                         0.191936       0.030414
                                                         0.750068       0.724129
                                                         2.907977       1.586204
                                                        16.368686       1.487256
                          1       5    4dyz              0.090000       0.000000
                                                         0.191936       0.052678
                                                         0.750068       1.254227
                                                         2.907977       2.747386
                                                        16.368686       2.576002
                          1       5    4dz2              0.090000       0.000000
                                                         0.191936       0.030414
                                                         0.750068       0.724129
                                                         2.907977       1.586204
                                                        16.368686       1.487256

                          1       6    5dx2              0.090000      -0.010181
                                                         0.191936       0.018957
                                                         0.750068       0.933882
                                                         2.907977       0.008471
                                                        16.368686       0.000000
                          1       6    5dxy              0.090000      -0.017634
                                                         0.191936       0.032834
                                                         0.750068       1.617531
                                                         2.907977       0.014671
                                                        16.368686       0.000000
                          1       6    5dxz              0.090000      -0.017634
                                                         0.191936       0.032834
                                                         0.750068       1.617531
                                                         2.907977       0.014671
                                                        16.368686       0.000000
                          1       6    5dy2              0.090000      -0.010181
                                                         0.191936       0.018957
                                                         0.750068       0.933882
                                                         2.907977       0.008471
                                                        16.368686       0.000000
                          1       6    5dyz              0.090000      -0.017634
                                                         0.191936       0.032834
                                                         0.750068       1.617531
                                                         2.907977       0.014671
                                                        16.368686       0.000000
                          1       6    5dz2              0.090000      -0.010181
                                                         0.191936       0.018957
                                                         0.750068       0.933882
                                                         2.907977       0.008471
                                                        16.368686       0.000000

                          1       7    5fx3              0.090000       0.003073
                                                         0.191936       0.017866
                                                         0.750068       0.208981
                                                         2.907977      -1.809714
                                                        16.368686       0.000000
                          1       7    5fx2y             0.090000       0.006871
                                                         0.191936       0.039950
                                                         0.750068       0.467295
                                                         2.907977      -4.046643
                                                        16.368686       0.000000
                          1       7    5fx2z             0.090000       0.006871
                                                         0.191936       0.039950
                                                         0.750068       0.467295
                                                         2.907977      -4.046643
                                                        16.368686       0.000000
                          1       7    5fxy2             0.090000       0.006871
                                                         0.191936       0.039950
                                                         0.750068       0.467295
                                                         2.907977      -4.046643
                                                        16.368686       0.000000
                          1       7    5fxyz             0.090000       0.011901
                                                         0.191936       0.069196
                                                         0.750068       0.809378
                                                         2.907977      -7.008992
                                                        16.368686       0.000000
                          1       7    5fxz2             0.090000       0.006871
                                                         0.191936       0.039950
                                                         0.750068       0.467295
                                                         2.907977      -4.046643
                                                        16.368686       0.000000
                          1       7    5fy3              0.090000       0.003073
                                                         0.191936       0.017866
                                                         0.750068       0.208981
                                                         2.907977      -1.809714
                                                        16.368686       0.000000
                          1       7    5fy2z             0.090000       0.006871
                                                         0.191936       0.039950
                                                         0.750068       0.467295
                                                         2.907977      -4.046643
                                                        16.368686       0.000000
                          1       7    5fyz2             0.090000       0.006871
                                                         0.191936       0.039950
                                                         0.750068       0.467295
                                                         2.907977      -4.046643
                                                        16.368686       0.000000
                          1       7    5fz3              0.090000       0.003073
                                                         0.191936       0.017866
                                                         0.750068       0.208981
                                                         2.907977      -1.809714
                                                        16.368686       0.000000

                          2       1    1s                0.293338      -0.001581
                                                         0.941883       0.076823
                                                         5.946538      -1.128731
                                                        19.692604      -3.542509
                                                        76.928143      -3.538410
                                                       340.903325      -2.616043
                                                      2266.118827      -1.088852

                          2       2    2s                0.293338       0.124568
                                                         0.941883       0.386056
                                                         5.946538       0.132815
                                                        19.692604       0.350657
                                                        76.928143       1.294240
                                                       340.903325      -0.343055
                                                      2266.118827       0.730749

                          2       3    3s                0.293338       0.411906
                                                         0.941883      -0.735854
                                                         5.946538      -0.324434
                                                        19.692604      -0.580898
                                                        76.928143      -3.484318
                                                       340.903325       2.878168
                                                      2266.118827      -6.417666

     RI Auxiliary Basis Set             RI_aug-DZVP-MOLOPT-ae_N_RI_033_s_p_d_f_g

       Number of orbital shell sets:                                          13
       Number of orbital shells:                                              13
       Number of primitive Cartesian functions:                               13
       Number of Cartesian basis functions:                                   38
       Number of spherical basis functions:                                   33
       Norm type:                                                              2

       Normalised Cartesian orbitals:

                        Set   Shell   Orbital            Exponent    Coefficient

                          1       1    1s                0.149762       0.171578

                          2       1    2s                0.732943       0.564563

                          3       1   11dx2              0.767837       1.036645
                          3       1   11dxy              0.767837       1.795521
                          3       1   11dxz              0.767837       1.795521
                          3       1   11dy2              0.767837       1.036645
                          3       1   11dyz              0.767837       1.795521
                          3       1   11dz2              0.767837       1.036645

                          4       1    8px               0.853524       1.169392
                          4       1    8py               0.853524       1.169392
                          4       1    8pz               0.853524       1.169392

                          5       1   13fx3              1.248784       2.426893
                          5       1   13fx2y             1.248784       5.426699
                          5       1   13fx2z             1.248784       5.426699
                          5       1   13fxy2             1.248784       5.426699
                          5       1   13fxyz             1.248784       9.399318
                          5       1   13fxz2             1.248784       5.426699
                          5       1   13fy3              1.248784       2.426893
                          5       1   13fy2z             1.248784       5.426699
                          5       1   13fyz2             1.248784       5.426699
                          5       1   13fz3              1.248784       2.426893

                          6       1    9px               1.612728       2.590547
                          6       1    9py               1.612728       2.590547
                          6       1    9pz               1.612728       2.590547

                          7       1    3s                2.196070       1.285715

                          8       1   12dx2              2.738238       9.593655
                          8       1   12dxy              2.738238      16.616698
                          8       1   12dxz              2.738238      16.616698
                          8       1   12dy2              2.738238       9.593655
                          8       1   12dyz              2.738238      16.616698
                          8       1   12dz2              2.738238       9.593655

                          9       1    4s                6.385151       2.862783

                         10       1   10px              17.302177      50.299773
                         10       1   10py              17.302177      50.299773
                         10       1   10pz              17.302177      50.299773

                         11       1    5s               18.792757       6.432843

                         12       1    6s               55.332911      14.459315

                         13       1    7s              162.836104      32.488011

       Atomic covalent radius [Angstrom]:                                  0.730

       Atomic van der Waals radius [Angstrom]:                             1.520

     The atoms of this atomic kind are PAW atoms (GAPW):
       Hard Gaussian function radius:                                      1.512
       Rho0 radius:                                                        1.512
       Maximum GTO radius used for PAW projector construction:            24.566

     GAPW Soft Basis Set                                 aug-DZVP-MOLOPT-ae_soft

       Number of orbital shell sets:                                           2
       Number of orbital shells:                                              10
       Number of primitive Cartesian functions:                                6
       Number of Cartesian basis functions:                                   35
       Number of spherical basis functions:                                   30
       Norm type:                                                              2

       Normalised Cartesian orbitals:

                        Set   Shell   Orbital            Exponent    Coefficient

                          1       1    2s                0.090000       0.120905
                                                         0.191936      -0.019521
                                                         0.750068       0.059582
                                                         2.907977       0.000000

                          1       2    3px               0.090000       0.000000
                                                         0.191936       0.023686
                                                         0.750068       0.626550
                                                         2.907977       2.082711
                          1       2    3py               0.090000       0.000000
                                                         0.191936       0.023686
                                                         0.750068       0.626550
                                                         2.907977       2.082711
                          1       2    3pz               0.090000       0.000000
                                                         0.191936       0.023686
                                                         0.750068       0.626550
                                                         2.907977       2.082711

                          1       3    4px               0.090000       0.000000
                                                         0.191936       0.196557
                                                         0.750068      -0.157257
                                                         2.907977      -0.566756
                          1       3    4py               0.090000       0.000000
                                                         0.191936       0.196557
                                                         0.750068      -0.157257
                                                         2.907977      -0.566756
                          1       3    4pz               0.090000       0.000000
                                                         0.191936       0.196557
                                                         0.750068      -0.157257
                                                         2.907977      -0.566756

                          1       4    5px               0.090000       0.020606
                                                         0.191936       0.124186
                                                         0.750068       0.098287
                                                         2.907977       0.000000
                          1       4    5py               0.090000       0.020606
                                                         0.191936       0.124186
                                                         0.750068       0.098287
                                                         2.907977       0.000000
                          1       4    5pz               0.090000       0.020606
                                                         0.191936       0.124186
                                                         0.750068       0.098287
                                                         2.907977       0.000000

                          1       5    4dx2              0.090000       0.000000
                                                         0.191936       0.030414
                                                         0.750068       0.724129
                                                         2.907977       1.586204
                          1       5    4dxy              0.090000       0.000000
                                                         0.191936       0.052678
                                                         0.750068       1.254227
                                                         2.907977       2.747386
                          1       5    4dxz              0.090000       0.000000
                                                         0.191936       0.052678
                                                         0.750068       1.254227
                                                         2.907977       2.747386
                          1       5    4dy2              0.090000       0.000000
                                                         0.191936       0.030414
                                                         0.750068       0.724129
                                                         2.907977       1.586204
                          1       5    4dyz              0.090000       0.000000
                                                         0.191936       0.052678
                                                         0.750068       1.254227
                                                         2.907977       2.747386
                          1       5    4dz2              0.090000       0.000000
                                                         0.191936       0.030414
                                                         0.750068       0.724129
                                                         2.907977       1.586204

                          1       6    5dx2              0.090000      -0.010181
                                                         0.191936       0.018957
                                                         0.750068       0.933882
                                                         2.907977       0.008471
                          1       6    5dxy              0.090000      -0.017634
                                                         0.191936       0.032834
                                                         0.750068       1.617531
                                                         2.907977       0.014671
                          1       6    5dxz              0.090000      -0.017634
                                                         0.191936       0.032834
                                                         0.750068       1.617531
                                                         2.907977       0.014671
                          1       6    5dy2              0.090000      -0.010181
                                                         0.191936       0.018957
                                                         0.750068       0.933882
                                                         2.907977       0.008471
                          1       6    5dyz              0.090000      -0.017634
                                                         0.191936       0.032834
                                                         0.750068       1.617531
                                                         2.907977       0.014671
                          1       6    5dz2              0.090000      -0.010181
                                                         0.191936       0.018957
                                                         0.750068       0.933882
                                                         2.907977       0.008471

                          1       7    5fx3              0.090000       0.003073
                                                         0.191936       0.017866
                                                         0.750068       0.208981
                                                         2.907977      -1.809714
                          1       7    5fx2y             0.090000       0.006871
                                                         0.191936       0.039950
                                                         0.750068       0.467295
                                                         2.907977      -4.046643
                          1       7    5fx2z             0.090000       0.006871
                                                         0.191936       0.039950
                                                         0.750068       0.467295
                                                         2.907977      -4.046643
                          1       7    5fxy2             0.090000       0.006871
                                                         0.191936       0.039950
                                                         0.750068       0.467295
                                                         2.907977      -4.046643
                          1       7    5fxyz             0.090000       0.011901
                                                         0.191936       0.069196
                                                         0.750068       0.809378
                                                         2.907977      -7.008992
                          1       7    5fxz2             0.090000       0.006871
                                                         0.191936       0.039950
                                                         0.750068       0.467295
                                                         2.907977      -4.046643
                          1       7    5fy3              0.090000       0.003073
                                                         0.191936       0.017866
                                                         0.750068       0.208981
                                                         2.907977      -1.809714
                          1       7    5fy2z             0.090000       0.006871
                                                         0.191936       0.039950
                                                         0.750068       0.467295
                                                         2.907977      -4.046643
                          1       7    5fyz2             0.090000       0.006871
                                                         0.191936       0.039950
                                                         0.750068       0.467295
                                                         2.907977      -4.046643
                          1       7    5fz3              0.090000       0.003073
                                                         0.191936       0.017866
                                                         0.750068       0.208981
                                                         2.907977      -1.809714

                          2       1    1s                0.293338      -0.001581
                                                         0.941883       0.076823

                          2       2    2s                0.293338       0.124568
                                                         0.941883       0.386056

                          2       3    3s                0.293338       0.411906
                                                         0.941883      -0.735854

     AE Potential information for                                            ALL

       Description:                                       All-electron potential
                                          Krack, Parrinello, PCCP 2, 2105 (2000)

       Gaussian exponent of the core charge distribution:               8.154466
       Electronic configuration (s p d ...):                           4   4   0

  2. Atomic kind: S                                     Number of atoms:       1

     Orbital Basis Set                                        aug-DZVP-MOLOPT-ae

       Number of orbital shell sets:                                           3
       Number of orbital shells:                                              12
       Number of primitive Cartesian functions:                               18
       Number of Cartesian basis functions:                                   39
       Number of spherical basis functions:                                   34
       Norm type:                                                              2

       Normalised Cartesian orbitals:

                        Set   Shell   Orbital            Exponent    Coefficient

                          1       1    1s                0.070000       0.160238
                                                         0.132026      -0.106319
                                                         0.461903      -0.064590
                                                         2.043261       0.000000
                                                         6.030247       0.000000
                                                        18.817576       0.000000
                                                        61.243244       0.000000
                                                       262.037180       0.000000

                          1       2    2px               0.070000       0.000000
                                                         0.132026      -0.006041
                                                         0.461903       0.020884
                                                         2.043261      -1.163342
                                                         6.030247      -7.192527
                                                        18.817576     -14.902856
                                                        61.243244     -16.017959
                                                       262.037180     -14.606063
                          1       2    2py               0.070000       0.000000
                                                         0.132026      -0.006041
                                                         0.461903       0.020884
                                                         2.043261      -1.163342
                                                         6.030247      -7.192527
                                                        18.817576     -14.902856
                                                        61.243244     -16.017959
                                                       262.037180     -14.606063
                          1       2    2pz               0.070000       0.000000
                                                         0.132026      -0.006041
                                                         0.461903       0.020884
                                                         2.043261      -1.163342
                                                         6.030247      -7.192527
                                                        18.817576     -14.902856
                                                        61.243244     -16.017959
                                                       262.037180     -14.606063

                          1       3    3px               0.070000       0.000000
                                                         0.132026       0.013372
                                                         0.461903       0.460806
                                                         2.043261       0.527227
                                                         6.030247      -0.800963
                                                        18.817576       1.692650
                                                        61.243244      -2.127051
                                                       262.037180       6.627568
                          1       3    3py               0.070000       0.000000
                                                         0.132026       0.013372
                                                         0.461903       0.460806
                                                         2.043261       0.527227
                                                         6.030247      -0.800963
                                                        18.817576       1.692650
                                                        61.243244      -2.127051
                                                       262.037180       6.627568
                          1       3    3pz               0.070000       0.000000
                                                         0.132026       0.013372
                                                         0.461903       0.460806
                                                         2.043261       0.527227
                                                         6.030247      -0.800963
                                                        18.817576       1.692650
                                                        61.243244      -2.127051
                                                       262.037180       6.627568

                          1       4    4px               0.070000       0.000000
                                                         0.132026       0.122461
                                                         0.461903      -0.074630
                                                         2.043261      -0.266435
                                                         6.030247      -0.600117
                                                        18.817576      -2.837173
                                                        61.243244       0.679283
                                                       262.037180      -9.723876
                          1       4    4py               0.070000       0.000000
                                                         0.132026       0.122461
                                                         0.461903      -0.074630
                                                         2.043261      -0.266435
                                                         6.030247      -0.600117
                                                        18.817576      -2.837173
                                                        61.243244       0.679283
                                                       262.037180      -9.723876
                          1       4    4pz               0.070000       0.000000
                                                         0.132026       0.122461
                                                         0.461903      -0.074630
                                                         2.043261      -0.266435
                                                         6.030247      -0.600117
                                                        18.817576      -2.837173
                                                        61.243244       0.679283
                                                       262.037180      -9.723876

                          1       5    5px               0.070000      -0.010761
                                                         0.132026      -0.065366
                                                         0.461903       0.662552
                                                         2.043261       0.000000
                                                         6.030247       0.000000
                                                        18.817576       0.000000
                                                        61.243244       0.000000
                                                       262.037180       0.000000
                          1       5    5py               0.070000      -0.010761
                                                         0.132026      -0.065366
                                                         0.461903       0.662552
                                                         2.043261       0.000000
                                                         6.030247       0.000000
                                                        18.817576       0.000000
                                                        61.243244       0.000000
                                                       262.037180       0.000000
                          1       5    5pz               0.070000      -0.010761
                                                         0.132026      -0.065366
                                                         0.461903       0.662552
                                                         2.043261       0.000000
                                                         6.030247       0.000000
                                                        18.817576       0.000000
                                                        61.243244       0.000000
                                                       262.037180       0.000000

                          1       6    3dx2              0.070000       0.000000
                                                         0.132026       0.010167
                                                         0.461903       0.321348
                                                         2.043261       1.422467
                                                         6.030247      -0.691425
                                                        18.817576       4.642944
                                                        61.243244     -11.887587
                                                       262.037180      63.210336
                          1       6    3dxy              0.070000       0.000000
                                                         0.132026       0.017609
                                                         0.461903       0.556591
                                                         2.043261       2.463785
                                                         6.030247      -1.197583
                                                        18.817576       8.041814
                                                        61.243244     -20.589904
                                                       262.037180     109.483513
                          1       6    3dxz              0.070000       0.000000
                                                         0.132026       0.017609
                                                         0.461903       0.556591
                                                         2.043261       2.463785
                                                         6.030247      -1.197583
                                                        18.817576       8.041814
                                                        61.243244     -20.589904
                                                       262.037180     109.483513
                          1       6    3dy2              0.070000       0.000000
                                                         0.132026       0.010167
                                                         0.461903       0.321348
                                                         2.043261       1.422467
                                                         6.030247      -0.691425
                                                        18.817576       4.642944
                                                        61.243244     -11.887587
                                                       262.037180      63.210336
                          1       6    3dyz              0.070000       0.000000
                                                         0.132026       0.017609
                                                         0.461903       0.556591
                                                         2.043261       2.463785
                                                         6.030247      -1.197583
                                                        18.817576       8.041814
                                                        61.243244     -20.589904
                                                       262.037180     109.483513
                          1       6    3dz2              0.070000       0.000000
                                                         0.132026       0.010167
                                                         0.461903       0.321348
                                                         2.043261       1.422467
                                                         6.030247      -0.691425
                                                        18.817576       4.642944
                                                        61.243244     -11.887587
                                                       262.037180      63.210336

                          1       7    4dx2              0.070000       0.004993
                                                         0.132026       0.031835
                                                         0.461903       0.041246
                                                         2.043261       0.000000
                                                         6.030247       0.000000
                                                        18.817576       0.000000
                                                        61.243244       0.000000
                                                       262.037180       0.000000
                          1       7    4dxy              0.070000       0.008648
                                                         0.132026       0.055140
                                                         0.461903       0.071440
                                                         2.043261       0.000000
                                                         6.030247       0.000000
                                                        18.817576       0.000000
                                                        61.243244       0.000000
                                                       262.037180       0.000000
                          1       7    4dxz              0.070000       0.008648
                                                         0.132026       0.055140
                                                         0.461903       0.071440
                                                         2.043261       0.000000
                                                         6.030247       0.000000
                                                        18.817576       0.000000
                                                        61.243244       0.000000
                                                       262.037180       0.000000
                          1       7    4dy2              0.070000       0.004993
                                                         0.132026       0.031835
                                                         0.461903       0.041246
                                                         2.043261       0.000000
                                                         6.030247       0.000000
                                                        18.817576       0.000000
                                                        61.243244       0.000000
                                                       262.037180       0.000000
                          1       7    4dyz              0.070000       0.008648
                                                         0.132026       0.055140
                                                         0.461903       0.071440
                                                         2.043261       0.000000
                                                         6.030247       0.000000
                                                        18.817576       0.000000
                                                        61.243244       0.000000
                                                       262.037180       0.000000
                          1       7    4dz2              0.070000       0.004993
                                                         0.132026       0.031835
                                                         0.461903       0.041246
                                                         2.043261       0.000000
                                                         6.030247       0.000000
                                                        18.817576       0.000000
                                                        61.243244       0.000000
                                                       262.037180       0.000000

                          1       8    4fx3              0.070000       0.001179
                                                         0.132026       0.004915
                                                         0.461903       0.162520
                                                         2.043261       0.000000
                                                         6.030247       0.000000
                                                        18.817576       0.000000
                                                        61.243244       0.000000
                                                       262.037180       0.000000
                          1       8    4fx2y             0.070000       0.002636
                                                         0.132026       0.010991
                                                         0.461903       0.363406
                                                         2.043261       0.000000
                                                         6.030247       0.000000
                                                        18.817576       0.000000
                                                        61.243244       0.000000
                                                       262.037180       0.000000
                          1       8    4fx2z             0.070000       0.002636
                                                         0.132026       0.010991
                                                         0.461903       0.363406
                                                         2.043261       0.000000
                                                         6.030247       0.000000
                                                        18.817576       0.000000
                                                        61.243244       0.000000
                                                       262.037180       0.000000
                          1       8    4fxy2             0.070000       0.002636
                                                         0.132026       0.010991
                                                         0.461903       0.363406
                                                         2.043261       0.000000
                                                         6.030247       0.000000
                                                        18.817576       0.000000
                                                        61.243244       0.000000
                                                       262.037180       0.000000
                          1       8    4fxyz             0.070000       0.004567
                                                         0.132026       0.019037
                                                         0.461903       0.629438
                                                         2.043261       0.000000
                                                         6.030247       0.000000
                                                        18.817576       0.000000
                                                        61.243244       0.000000
                                                       262.037180       0.000000
                          1       8    4fxz2             0.070000       0.002636
                                                         0.132026       0.010991
                                                         0.461903       0.363406
                                                         2.043261       0.000000
                                                         6.030247       0.000000
                                                        18.817576       0.000000
                                                        61.243244       0.000000
                                                       262.037180       0.000000
                          1       8    4fy3              0.070000       0.001179
                                                         0.132026       0.004915
                                                         0.461903       0.162520
                                                         2.043261       0.000000
                                                         6.030247       0.000000
                                                        18.817576       0.000000
                                                        61.243244       0.000000
                                                       262.037180       0.000000
                          1       8    4fy2z             0.070000       0.002636
                                                         0.132026       0.010991
                                                         0.461903       0.363406
                                                         2.043261       0.000000
                                                         6.030247       0.000000
                                                        18.817576       0.000000
                                                        61.243244       0.000000
                                                       262.037180       0.000000
                          1       8    4fyz2             0.070000       0.002636
                                                         0.132026       0.010991
                                                         0.461903       0.363406
                                                         2.043261       0.000000
                                                         6.030247       0.000000
                                                        18.817576       0.000000
                                                        61.243244       0.000000
                                                       262.037180       0.000000
                          1       8    4fz3              0.070000       0.001179
                                                         0.132026       0.004915
                                                         0.461903       0.162520
                                                         2.043261       0.000000
                                                         6.030247       0.000000
                                                        18.817576       0.000000
                                                        61.243244       0.000000
                                                       262.037180       0.000000

                          2       1    1s               45.482850      -1.175639
                                                         4.876333       1.431452
                                                         1.864066       0.572778
                                                         0.430250      -0.034078
                                                         0.152872       0.004775

                          2       2    2s               45.482850      -0.314552
                                                         4.876333       0.236776
                                                         1.864066      -0.009167
                                                         0.430250       0.282804
                                                         0.152872       0.044200

                          2       3    3s               45.482850       0.143312
                                                         4.876333      -0.094249
                                                         1.864066      -0.118759
                                                         0.430250      -0.172982
                                                         0.152872       0.236834

                          3       1    1s             9184.968607      -3.488008
                                                      1381.514008      -6.811623
                                                       313.892819      -9.517673
                                                        87.514579     -10.059465
                                                        25.931396      -3.470689

     RI Auxiliary Basis Set             RI_aug-DZVP-MOLOPT-ae_N_RI_048_s_p_d_f_g

       Number of orbital shell sets:                                          16
       Number of orbital shells:                                              16
       Number of primitive Cartesian functions:                               16
       Number of Cartesian basis functions:                                   57
       Number of spherical basis functions:                                   48
       Norm type:                                                              2

       Normalised Cartesian orbitals:

                        Set   Shell   Orbital            Exponent    Coefficient

                          1       1   15fx3              0.269339       0.076936
                          1       1   15fx2y             0.269339       0.172033
                          1       1   15fx2z             0.269339       0.172033
                          1       1   15fxy2             0.269339       0.172033
                          1       1   15fxyz             0.269339       0.297971
                          1       1   15fxz2             0.269339       0.172033
                          1       1   15fy3              0.269339       0.076936
                          1       1   15fy2z             0.269339       0.172033
                          1       1   15fyz2             0.269339       0.172033
                          1       1   15fz3              0.269339       0.076936

                          2       1    1s                0.302001       0.290347

                          3       1    8px               0.328374       0.354324
                          3       1    8py               0.328374       0.354324
                          3       1    8pz               0.328374       0.354324

                          4       1   12dx2              0.498863       0.487389
                          4       1   12dxy              0.498863       0.844183
                          4       1   12dxz              0.498863       0.844183
                          4       1   12dy2              0.498863       0.487389
                          4       1   12dyz              0.498863       0.844183
                          4       1   12dz2              0.498863       0.487389

                          5       1    9px               0.566800       0.701015
                          5       1    9py               0.566800       0.701015
                          5       1    9pz               0.566800       0.701015

                          6       1    2s                0.611132       0.492619

                          7       1   13dx2              0.764799       1.029479
                          7       1   13dxy              0.764799       1.783110
                          7       1   13dxz              0.764799       1.783110
                          7       1   13dy2              0.764799       1.029479
                          7       1   13dyz              0.764799       1.783110
                          7       1   13dz2              0.764799       1.029479

                          8       1   16fx3              0.867688       1.069726
                          8       1   16fx2y             0.867688       2.391981
                          8       1   16fx2z             0.867688       2.391981
                          8       1   16fxy2             0.867688       2.391981
                          8       1   16fxyz             0.867688       4.143033
                          8       1   16fxz2             0.867688       2.391981
                          8       1   16fy3              0.867688       1.069726
                          8       1   16fy2z             0.867688       2.391981
                          8       1   16fyz2             0.867688       2.391981
                          8       1   16fz3              0.867688       1.069726

                          9       1    3s                1.973680       1.186773

                         10       1   10px               3.976715       8.004712
                         10       1   10py               3.976715       8.004712
                         10       1   10pz               3.976715       8.004712

                         11       1    4s                7.245118       3.147344

                         12       1   14dx2              8.984523      76.740695
                         12       1   14dxy              8.984523     132.918782
                         12       1   14dxz              8.984523     132.918782
                         12       1   14dy2              8.984523      76.740695
                         12       1   14dyz              8.984523     132.918782
                         12       1   14dz2              8.984523      76.740695

                         13       1    5s               26.747990       8.382595

                         14       1   11px              77.234674     326.366431
                         14       1   11py              77.234674     326.366431
                         14       1   11pz              77.234674     326.366431

                         15       1    6s               97.467457      22.108273

                         16       1    7s              353.400833      58.091256

       Atomic covalent radius [Angstrom]:                                  1.020

       Atomic van der Waals radius [Angstrom]:                             1.800

     The atoms of this atomic kind are PAW atoms (GAPW):
       Hard Gaussian function radius:                                      1.512
       Rho0 radius:                                                        1.512
       Maximum GTO radius used for PAW projector construction:            24.566

     GAPW Soft Basis Set                                 aug-DZVP-MOLOPT-ae_soft

       Number of orbital shell sets:                                           3
       Number of orbital shells:                                              12
       Number of primitive Cartesian functions:                                7
       Number of Cartesian basis functions:                                   39
       Number of spherical basis functions:                                   34
       Norm type:                                                              2

       Normalised Cartesian orbitals:

                        Set   Shell   Orbital            Exponent    Coefficient

                          1       1    1s                0.070000       0.160238
                                                         0.132026      -0.106319
                                                         0.461903      -0.064590
                                                         2.043261       0.000000

                          1       2    2px               0.070000       0.000000
                                                         0.132026      -0.006041
                                                         0.461903       0.020884
                                                         2.043261      -1.163342
                          1       2    2py               0.070000       0.000000
                                                         0.132026      -0.006041
                                                         0.461903       0.020884
                                                         2.043261      -1.163342
                          1       2    2pz               0.070000       0.000000
                                                         0.132026      -0.006041
                                                         0.461903       0.020884
                                                         2.043261      -1.163342

                          1       3    3px               0.070000       0.000000
                                                         0.132026       0.013372
                                                         0.461903       0.460806
                                                         2.043261       0.527227
                          1       3    3py               0.070000       0.000000
                                                         0.132026       0.013372
                                                         0.461903       0.460806
                                                         2.043261       0.527227
                          1       3    3pz               0.070000       0.000000
                                                         0.132026       0.013372
                                                         0.461903       0.460806
                                                         2.043261       0.527227

                          1       4    4px               0.070000       0.000000
                                                         0.132026       0.122461
                                                         0.461903      -0.074630
                                                         2.043261      -0.266435
                          1       4    4py               0.070000       0.000000
                                                         0.132026       0.122461
                                                         0.461903      -0.074630
                                                         2.043261      -0.266435
                          1       4    4pz               0.070000       0.000000
                                                         0.132026       0.122461
                                                         0.461903      -0.074630
                                                         2.043261      -0.266435

                          1       5    5px               0.070000      -0.010761
                                                         0.132026      -0.065366
                                                         0.461903       0.662552
                                                         2.043261       0.000000
                          1       5    5py               0.070000      -0.010761
                                                         0.132026      -0.065366
                                                         0.461903       0.662552
                                                         2.043261       0.000000
                          1       5    5pz               0.070000      -0.010761
                                                         0.132026      -0.065366
                                                         0.461903       0.662552
                                                         2.043261       0.000000

                          1       6    3dx2              0.070000       0.000000
                                                         0.132026       0.010167
                                                         0.461903       0.321348
                                                         2.043261       1.422467
                          1       6    3dxy              0.070000       0.000000
                                                         0.132026       0.017609
                                                         0.461903       0.556591
                                                         2.043261       2.463785
                          1       6    3dxz              0.070000       0.000000
                                                         0.132026       0.017609
                                                         0.461903       0.556591
                                                         2.043261       2.463785
                          1       6    3dy2              0.070000       0.000000
                                                         0.132026       0.010167
                                                         0.461903       0.321348
                                                         2.043261       1.422467
                          1       6    3dyz              0.070000       0.000000
                                                         0.132026       0.017609
                                                         0.461903       0.556591
                                                         2.043261       2.463785
                          1       6    3dz2              0.070000       0.000000
                                                         0.132026       0.010167
                                                         0.461903       0.321348
                                                         2.043261       1.422467

                          1       7    4dx2              0.070000       0.004993
                                                         0.132026       0.031835
                                                         0.461903       0.041246
                                                         2.043261       0.000000
                          1       7    4dxy              0.070000       0.008648
                                                         0.132026       0.055140
                                                         0.461903       0.071440
                                                         2.043261       0.000000
                          1       7    4dxz              0.070000       0.008648
                                                         0.132026       0.055140
                                                         0.461903       0.071440
                                                         2.043261       0.000000
                          1       7    4dy2              0.070000       0.004993
                                                         0.132026       0.031835
                                                         0.461903       0.041246
                                                         2.043261       0.000000
                          1       7    4dyz              0.070000       0.008648
                                                         0.132026       0.055140
                                                         0.461903       0.071440
                                                         2.043261       0.000000
                          1       7    4dz2              0.070000       0.004993
                                                         0.132026       0.031835
                                                         0.461903       0.041246
                                                         2.043261       0.000000

                          1       8    4fx3              0.070000       0.001179
                                                         0.132026       0.004915
                                                         0.461903       0.162520
                                                         2.043261       0.000000
                          1       8    4fx2y             0.070000       0.002636
                                                         0.132026       0.010991
                                                         0.461903       0.363406
                                                         2.043261       0.000000
                          1       8    4fx2z             0.070000       0.002636
                                                         0.132026       0.010991
                                                         0.461903       0.363406
                                                         2.043261       0.000000
                          1       8    4fxy2             0.070000       0.002636
                                                         0.132026       0.010991
                                                         0.461903       0.363406
                                                         2.043261       0.000000
                          1       8    4fxyz             0.070000       0.004567
                                                         0.132026       0.019037
                                                         0.461903       0.629438
                                                         2.043261       0.000000
                          1       8    4fxz2             0.070000       0.002636
                                                         0.132026       0.010991
                                                         0.461903       0.363406
                                                         2.043261       0.000000
                          1       8    4fy3              0.070000       0.001179
                                                         0.132026       0.004915
                                                         0.461903       0.162520
                                                         2.043261       0.000000
                          1       8    4fy2z             0.070000       0.002636
                                                         0.132026       0.010991
                                                         0.461903       0.363406
                                                         2.043261       0.000000
                          1       8    4fyz2             0.070000       0.002636
                                                         0.132026       0.010991
                                                         0.461903       0.363406
                                                         2.043261       0.000000
                          1       8    4fz3              0.070000       0.001179
                                                         0.132026       0.004915
                                                         0.461903       0.162520
                                                         2.043261       0.000000

                          2       1    1s                1.864066       0.572778
                                                         0.430250      -0.034078
                                                         0.152872       0.004775

                          2       2    2s                1.864066      -0.009167
                                                         0.430250       0.282804
                                                         0.152872       0.044200

                          2       3    3s                1.864066      -0.118759
                                                         0.430250      -0.172982
                                                         0.152872       0.236834

                          3       1    1s         

     AE Potential information for                                            ALL

       Description:                                       All-electron potential
                                          Krack, Parrinello, PCCP 2, 2105 (2000)

       Gaussian exponent of the core charge distribution:               2.834467
       Electronic configuration (s p d ...):                           6  10   0

  3. Atomic kind: C                                     Number of atoms:       6

     Orbital Basis Set                                        aug-DZVP-MOLOPT-ae

       Number of orbital shell sets:                                           2
       Number of orbital shells:                                              10
       Number of primitive Cartesian functions:                               13
       Number of Cartesian basis functions:                                   35
       Number of spherical basis functions:                                   30
       Norm type:                                                              2

       Normalised Cartesian orbitals:

                        Set   Shell   Orbital            Exponent    Coefficient

                          1       1    2px               0.050000       0.000000
                                                         0.096935       0.005344
                                                         0.300899       0.144116
                                                         0.937529       0.673511
                                                         4.145546       1.425967
                          1       1    2py               0.050000       0.000000
                                                         0.096935       0.005344
                                                         0.300899       0.144116
                                                         0.937529       0.673511
                                                         4.145546       1.425967
                          1       1    2pz               0.050000       0.000000
                                                         0.096935       0.005344
                                                         0.300899       0.144116
                                                         0.937529       0.673511
                                                         4.145546       1.425967

                          1       2    3px               0.050000       0.000000
                                                         0.096935       0.066903
                                                         0.300899       0.082631
                                                         0.937529      -0.414500
                                                         4.145546      -0.833488
                          1       2    3py               0.050000       0.000000
                                                         0.096935       0.066903
                                                         0.300899       0.082631
                                                         0.937529      -0.414500
                                                         4.145546      -0.833488
                          1       2    3pz               0.050000       0.000000
                                                         0.096935       0.066903
                                                         0.300899       0.082631
                                                         0.937529      -0.414500
                                                         4.145546      -0.833488

                          1       3    4px               0.050000       0.052477
                                                         0.096935      -0.149600
                                                         0.300899      -0.031452
                                                         0.937529       0.106528
                                                         4.145546       0.000000
                          1       3    4py               0.050000       0.052477
                                                         0.096935      -0.149600
                                                         0.300899      -0.031452
                                                         0.937529       0.106528
                                                         4.145546       0.000000
                          1       3    4pz               0.050000       0.052477
                                                         0.096935      -0.149600
                                                         0.300899      -0.031452
                                                         0.937529       0.106528
                                                         4.145546       0.000000

                          1       4    3dx2              0.050000       0.000000
                                                         0.096935       0.001258
                                                         0.300899       0.105504
                                                         0.937529       0.830801
                                                         4.145546       0.718979
                          1       4    3dxy              0.050000       0.000000
                                                         0.096935       0.002179
                                                         0.300899       0.182739
                                                         0.937529       1.438990
                                                         4.145546       1.245309
                          1       4    3dxz              0.050000       0.000000
                                                         0.096935       0.002179
                                                         0.300899       0.182739
                                                         0.937529       1.438990
                                                         4.145546       1.245309
                          1       4    3dy2              0.050000       0.000000
                                                         0.096935       0.001258
                                                         0.300899       0.105504
                                                         0.937529       0.830801
                                                         4.145546       0.718979
                          1       4    3dyz              0.050000       0.000000
                                                         0.096935       0.002179
                                                         0.300899       0.182739
                                                         0.937529       1.438990
                                                         4.145546       1.245309
                          1       4    3dz2              0.050000       0.000000
                                                         0.096935       0.001258
                                                         0.300899       0.105504
                                                         0.937529       0.830801
                                                         4.145546       0.718979

                          1       5    4dx2              0.050000      -0.011665
                                                         0.096935       0.057456
                                                         0.300899      -0.258169
                                                         0.937529       0.000000
                                                         4.145546       0.000000
                          1       5    4dxy              0.050000      -0.020204
                                                         0.096935       0.099516
                                                         0.300899      -0.447162
                                                         0.937529       0.000000
                                                         4.145546       0.000000
                          1       5    4dxz              0.050000      -0.020204
                                                         0.096935       0.099516
                                                         0.300899      -0.447162
                                                         0.937529       0.000000
                                                         4.145546       0.000000
                          1       5    4dy2              0.050000      -0.011665
                                                         0.096935       0.057456
                                                         0.300899      -0.258169
                                                         0.937529       0.000000
                                                         4.145546       0.000000
                          1       5    4dyz              0.050000      -0.020204
                                                         0.096935       0.099516
                                                         0.300899      -0.447162
                                                         0.937529       0.000000
                                                         4.145546       0.000000
                          1       5    4dz2              0.050000      -0.011665
                                                         0.096935       0.057456
                                                         0.300899      -0.258169
                                                         0.937529       0.000000
                                                         4.145546       0.000000

                          1       6    4fx3              0.050000      -0.000180
                                                         0.096935       0.008160
                                                         0.300899       0.004002
                                                         0.937529       0.000000
                                                         4.145546       0.000000
                          1       6    4fx2y             0.050000      -0.000402
                                                         0.096935       0.018246
                                                         0.300899       0.008949
                                                         0.937529       0.000000
                                                         4.145546       0.000000
                          1       6    4fx2z             0.050000      -0.000402
                                                         0.096935       0.018246
                                                         0.300899       0.008949
                                                         0.937529       0.000000
                                                         4.145546       0.000000
                          1       6    4fxy2             0.050000      -0.000402
                                                         0.096935       0.018246
                                                         0.300899       0.008949
                                                         0.937529       0.000000
                                                         4.145546       0.000000
                          1       6    4fxyz             0.050000      -0.000696
                                                         0.096935       0.031603
                                                         0.300899       0.015500
                                                         0.937529       0.000000
                                                         4.145546       0.000000
                          1       6    4fxz2             0.050000      -0.000402
                                                         0.096935       0.018246
                                                         0.300899       0.008949
                                                         0.937529       0.000000
                                                         4.145546       0.000000
                          1       6    4fy3              0.050000      -0.000180
                                                         0.096935       0.008160
                                                         0.300899       0.004002
                                                         0.937529       0.000000
                                                         4.145546       0.000000
                          1       6    4fy2z             0.050000      -0.000402
                                                         0.096935       0.018246
                                                         0.300899       0.008949
                                                         0.937529       0.000000
                                                         4.145546       0.000000
                          1       6    4fyz2             0.050000      -0.000402
                                                         0.096935       0.018246
                                                         0.300899       0.008949
                                                         0.937529       0.000000
                                                         4.145546       0.000000
                          1       6    4fz3              0.050000      -0.000180
                                                         0.096935       0.008160
                                                         0.300899       0.004002
                                                         0.937529       0.000000
                                                         4.145546       0.000000

                          2       1    1s                0.060000       0.000000
                                                         0.161278       0.024253
                                                         0.523772      -0.029268
                                                         3.176528       0.666384
                                                        10.501907       2.110671
                                                        40.805234       2.242010
                                                       186.270922       1.801845
                                                      1238.394264      -0.490536

                          2       2    2s                0.060000       0.000000
                                                         0.161278       0.080328
                                                         0.523772       0.279468
                                                         3.176528      -0.079506
                                                        10.501907      -0.033488
                                                        40.805234       0.350132
                                                       186.270922      -0.108171
                                                      1238.394264       0.147138

                          2       3    3s                0.060000       0.000000
                                                         0.161278       0.225687
                                                         0.523772      -0.382710
                                                         3.176528      -0.308205
                                                        10.501907      -0.974990
                                                        40.805234      -2.174132
                                                       186.270922       1.755878
                                                      1238.394264     -12.484315

                          2       4    4s                0.060000      -0.055653
                                                         0.161278      -0.019607
                                                         0.523772       0.500289
                                                         3.176528       0.067234
                                                        10.501907       0.000000
                                                        40.805234       0.000000
                                                       186.270922       0.000000
                                                      1238.394264       0.000000

     RI Auxiliary Basis Set             RI_aug-DZVP-MOLOPT-ae_N_RI_018_s_p_d_f_g

       Number of orbital shell sets:                                           8
       Number of orbital shells:                                               8
       Number of primitive Cartesian functions:                                8
       Number of Cartesian basis functions:                                   19
       Number of spherical basis functions:                                   18
       Norm type:                                                              2

       Normalised Cartesian orbitals:

                        Set   Shell   Orbital            Exponent    Coefficient

                          1       1    5px               0.226574       0.222819
                          1       1    5py               0.226574       0.222819
                          1       1    5pz               0.226574       0.222819

                          2       1    1s                0.271170       0.267819

                          3       1    8dx2              1.020768       1.706208
                          3       1    8dxy              1.020768       2.955238
                          3       1    8dxz              1.020768       2.955238
                          3       1    8dy2              1.020768       1.706208
                          3       1    8dyz              1.020768       2.955238
                          3       1    8dz2              1.020768       1.706208

                          4       1    2s                1.522307       0.976758

                          5       1    6px               1.658837       2.683457
                          5       1    6py               1.658837       2.683457
                          5       1    6pz               1.658837       2.683457

                          6       1    3s               14.506602       5.297663

                          7       1    7px              23.847910      75.119554
                          7       1    7py              23.847910      75.119554
                          7       1    7pz              23.847910      75.119554

                          8       1    4s              102.384866      22.939657

       Atomic covalent radius [Angstrom]:                                  0.770

       Atomic van der Waals radius [Angstrom]:                             1.700

     The atoms of this atomic kind are PAW atoms (GAPW):
       Hard Gaussian function radius:                                      1.512
       Rho0 radius:                                                        1.512
       Maximum GTO radius used for PAW projector construction:            24.566

     GAPW Soft Basis Set                                 aug-DZVP-MOLOPT-ae_soft

       Number of orbital shell sets:                                           2
       Number of orbital shells:                                              10
       Number of primitive Cartesian functions:                                9
       Number of Cartesian basis functions:                                   35
       Number of spherical basis functions:                                   30
       Norm type:                                                              2

       Normalised Cartesian orbitals:

                        Set   Shell   Orbital            Exponent    Coefficient

                          1       1    2px               0.050000       0.000000
                                                         0.096935       0.005344
                                                         0.300899       0.144116
                                                         0.937529       0.673511
                                                         4.145546       1.425967
                          1       1    2py               0.050000       0.000000
                                                         0.096935       0.005344
                                                         0.300899       0.144116
                                                         0.937529       0.673511
                                                         4.145546       1.425967
                          1       1    2pz               0.050000       0.000000
                                                         0.096935       0.005344
                                                         0.300899       0.144116
                                                         0.937529       0.673511
                                                         4.145546       1.425967

                          1       2    3px               0.050000       0.000000
                                                         0.096935       0.066903
                                                         0.300899       0.082631
                                                         0.937529      -0.414500
                                                         4.145546      -0.833488
                          1       2    3py               0.050000       0.000000
                                                         0.096935       0.066903
                                                         0.300899       0.082631
                                                         0.937529      -0.414500
                                                         4.145546      -0.833488
                          1       2    3pz               0.050000       0.000000
                                                         0.096935       0.066903
                                                         0.300899       0.082631
                                                         0.937529      -0.414500
                                                         4.145546      -0.833488

                          1       3    4px               0.050000       0.052477
                                                         0.096935      -0.149600
                                                         0.300899      -0.031452
                                                         0.937529       0.106528
                                                         4.145546       0.000000
                          1       3    4py               0.050000       0.052477
                                                         0.096935      -0.149600
                                                         0.300899      -0.031452
                                                         0.937529       0.106528
                                                         4.145546       0.000000
                          1       3    4pz               0.050000       0.052477
                                                         0.096935      -0.149600
                                                         0.300899      -0.031452
                                                         0.937529       0.106528
                                                         4.145546       0.000000

                          1       4    3dx2              0.050000       0.000000
                                                         0.096935       0.001258
                                                         0.300899       0.105504
                                                         0.937529       0.830801
                                                         4.145546       0.718979
                          1       4    3dxy              0.050000       0.000000
                                                         0.096935       0.002179
                                                         0.300899       0.182739
                                                         0.937529       1.438990
                                                         4.145546       1.245309
                          1       4    3dxz              0.050000       0.000000
                                                         0.096935       0.002179
                                                         0.300899       0.182739
                                                         0.937529       1.438990
                                                         4.145546       1.245309
                          1       4    3dy2              0.050000       0.000000
                                                         0.096935       0.001258
                                                         0.300899       0.105504
                                                         0.937529       0.830801
                                                         4.145546       0.718979
                          1       4    3dyz              0.050000       0.000000
                                                         0.096935       0.002179
                                                         0.300899       0.182739
                                                         0.937529       1.438990
                                                         4.145546       1.245309
                          1       4    3dz2              0.050000       0.000000
                                                         0.096935       0.001258
                                                         0.300899       0.105504
                                                         0.937529       0.830801
                                                         4.145546       0.718979

                          1       5    4dx2              0.050000      -0.011665
                                                         0.096935       0.057456
                                                         0.300899      -0.258169
                                                         0.937529       0.000000
                                                         4.145546       0.000000
                          1       5    4dxy              0.050000      -0.020204
                                                         0.096935       0.099516
                                                         0.300899      -0.447162
                                                         0.937529       0.000000
                                                         4.145546       0.000000
                          1       5    4dxz              0.050000      -0.020204
                                                         0.096935       0.099516
                                                         0.300899      -0.447162
                                                         0.937529       0.000000
                                                         4.145546       0.000000
                          1       5    4dy2              0.050000      -0.011665
                                                         0.096935       0.057456
                                                         0.300899      -0.258169
                                                         0.937529       0.000000
                                                         4.145546       0.000000
                          1       5    4dyz              0.050000      -0.020204
                                                         0.096935       0.099516
                                                         0.300899      -0.447162
                                                         0.937529       0.000000
                                                         4.145546       0.000000
                          1       5    4dz2              0.050000      -0.011665
                                                         0.096935       0.057456
                                                         0.300899      -0.258169
                                                         0.937529       0.000000
                                                         4.145546       0.000000

                          1       6    4fx3              0.050000      -0.000180
                                                         0.096935       0.008160
                                                         0.300899       0.004002
                                                         0.937529       0.000000
                                                         4.145546       0.000000
                          1       6    4fx2y             0.050000      -0.000402
                                                         0.096935       0.018246
                                                         0.300899       0.008949
                                                         0.937529       0.000000
                                                         4.145546       0.000000
                          1       6    4fx2z             0.050000      -0.000402
                                                         0.096935       0.018246
                                                         0.300899       0.008949
                                                         0.937529       0.000000
                                                         4.145546       0.000000
                          1       6    4fxy2             0.050000      -0.000402
                                                         0.096935       0.018246
                                                         0.300899       0.008949
                                                         0.937529       0.000000
                                                         4.145546       0.000000
                          1       6    4fxyz             0.050000      -0.000696
                                                         0.096935       0.031603
                                                         0.300899       0.015500
                                                         0.937529       0.000000
                                                         4.145546       0.000000
                          1       6    4fxz2             0.050000      -0.000402
                                                         0.096935       0.018246
                                                         0.300899       0.008949
                                                         0.937529       0.000000
                                                         4.145546       0.000000
                          1       6    4fy3              0.050000      -0.000180
                                                         0.096935       0.008160
                                                         0.300899       0.004002
                                                         0.937529       0.000000
                                                         4.145546       0.000000
                          1       6    4fy2z             0.050000      -0.000402
                                                         0.096935       0.018246
                                                         0.300899       0.008949
                                                         0.937529       0.000000
                                                         4.145546       0.000000
                          1       6    4fyz2             0.050000      -0.000402
                                                         0.096935       0.018246
                                                         0.300899       0.008949
                                                         0.937529       0.000000
                                                         4.145546       0.000000
                          1       6    4fz3              0.050000      -0.000180
                                                         0.096935       0.008160
                                                         0.300899       0.004002
                                                         0.937529       0.000000
                                                         4.145546       0.000000

                          2       1    1s                0.060000       0.000000
                                                         0.161278       0.024253
                                                         0.523772      -0.029268
                                                         3.176528       0.666384

                          2       2    2s                0.060000       0.000000
                                                         0.161278       0.080328
                                                         0.523772       0.279468
                                                         3.176528      -0.079506

                          2       3    3s                0.060000       0.000000
                                                         0.161278       0.225687
                                                         0.523772      -0.382710
                                                         3.176528      -0.308205

                          2       4    4s                0.060000      -0.055653
                                                         0.161278      -0.019607
                                                         0.523772       0.500289
                                                         3.176528       0.067234

     AE Potential information for                                            ALL

       Description:                                       All-electron potential
                                          Krack, Parrinello, PCCP 2, 2105 (2000)

       Gaussian exponent of the core charge distribution:               4.109048
       Electronic configuration (s p d ...):                           4   2   0

  4. Atomic kind: Cl                                    Number of atoms:       4

     Orbital Basis Set                                        aug-DZVP-MOLOPT-ae

       Number of orbital shell sets:                                           3
       Number of orbital shells:                                              12
       Number of primitive Cartesian functions:                               18
       Number of Cartesian basis functions:                                   39
       Number of spherical basis functions:                                   34
       Norm type:                                                              2

       Normalised Cartesian orbitals:

                        Set   Shell   Orbital            Exponent    Coefficient

                          1       1    1s                0.077000      -0.055972
                                                         0.154068      -0.150529
                                                         0.543592       0.356601
                                                         2.471054      -0.278595
                                                         7.247821      -0.098056
                                                        22.555186       0.000000
                                                        72.147284       0.000000
                                                       307.662624       0.000000

                          1       2    2px               0.077000       0.000000
                                                         0.154068      -0.003270
                                                         0.543592       0.000805
                                                         2.471054      -1.527312
                                                         7.247821      -8.880915
                                                        22.555186     -18.077865
                                                        72.147284     -18.092880
                                                       307.662624     -17.766715
                          1       2    2py               0.077000       0.000000
                                                         0.154068      -0.003270
                                                         0.543592       0.000805
                                                         2.471054      -1.527312
                                                         7.247821      -8.880915
                                                        22.555186     -18.077865
                                                        72.147284     -18.092880
                                                       307.662624     -17.766715
                          1       2    2pz               0.077000       0.000000
                                                         0.154068      -0.003270
                                                         0.543592       0.000805
                                                         2.471054      -1.527312
                                                         7.247821      -8.880915
                                                        22.555186     -18.077865
                                                        72.147284     -18.092880
                                                       307.662624     -17.766715

                          1       3    3px               0.077000       0.000000
                                                         0.154068       0.000503
                                                         0.543592       0.626386
                                                         2.471054       0.587728
                                                         7.247821      -1.439767
                                                        22.555186      -0.063520
                                                        72.147284      -1.414855
                                                       307.662624       7.955278
                          1       3    3py               0.077000       0.000000
                                                         0.154068       0.000503
                                                         0.543592       0.626386
                                                         2.471054       0.587728
                                                         7.247821      -1.439767
                                                        22.555186      -0.063520
                                                        72.147284      -1.414855
                                                       307.662624       7.955278
                          1       3    3pz               0.077000       0.000000
                                                         0.154068       0.000503
                                                         0.543592       0.626386
                                                         2.471054       0.587728
                                                         7.247821      -1.439767
                                                        22.555186      -0.063520
                                                        72.147284      -1.414855
                                                       307.662624       7.955278

                          1       4    4px               0.077000       0.000000
                                                         0.154068       0.138364
                                                         0.543592      -0.009132
                                                         2.471054       0.125424
                                                         7.247821      -1.081102
                                                        22.555186       0.165098
                                                        72.147284      -4.445275
                                                       307.662624      -7.846507
                          1       4    4py               0.077000       0.000000
                                                         0.154068       0.138364
                                                         0.543592      -0.009132
                                                         2.471054       0.125424
                                                         7.247821      -1.081102
                                                        22.555186       0.165098
                                                        72.147284      -4.445275
                                                       307.662624      -7.846507
                          1       4    4pz               0.077000       0.000000
                                                         0.154068       0.138364
                                                         0.543592      -0.009132
                                                         2.471054       0.125424
                                                         7.247821      -1.081102
                                                        22.555186       0.165098
                                                        72.147284      -4.445275
                                                       307.662624      -7.846507

                          1       5    5px               0.077000       0.023858
                                                         0.154068       0.049234
                                                         0.543592       0.261090
                                                         2.471054       0.018714
                                                         7.247821       0.000529
                                                        22.555186       0.000000
                                                        72.147284       0.000000
                                                       307.662624       0.000000
                          1       5    5py               0.077000       0.023858
                                                         0.154068       0.049234
                                                         0.543592       0.261090
                                                         2.471054       0.018714
                                                         7.247821       0.000529
                                                        22.555186       0.000000
                                                        72.147284       0.000000
                                                       307.662624       0.000000
                          1       5    5pz               0.077000       0.023858
                                                         0.154068       0.049234
                                                         0.543592       0.261090
                                                         2.471054       0.018714
                                                         7.247821       0.000529
                                                        22.555186       0.000000
                                                        72.147284       0.000000
                                                       307.662624       0.000000

                          1       6    3dx2              0.077000       0.000000
                                                         0.154068       0.021989
                                                         0.543592       0.387505
                                                         2.471054       1.600021
                                                         7.247821      -0.348096
                                                        22.555186       2.203691
                                                        72.147284      -8.429711
                                                       307.662624     151.584341
                          1       6    3dxy              0.077000       0.000000
                                                         0.154068       0.038086
                                                         0.543592       0.671178
                                                         2.471054       2.771318
                                                         7.247821      -0.602920
                                                        22.555186       3.816904
                                                        72.147284     -14.600687
                                                       307.662624     262.551781
                          1       6    3dxz              0.077000       0.000000
                                                         0.154068       0.038086
                                                         0.543592       0.671178
                                                         2.471054       2.771318
                                                         7.247821      -0.602920
                                                        22.555186       3.816904
                                                        72.147284     -14.600687
                                                       307.662624     262.551781
                          1       6    3dy2              0.077000       0.000000
                                                         0.154068       0.021989
                                                         0.543592       0.387505
                                                         2.471054       1.600021
                                                         7.247821      -0.348096
                                                        22.555186       2.203691
                                                        72.147284      -8.429711
                                                       307.662624     151.584341
                          1       6    3dyz              0.077000       0.000000
                                                         0.154068       0.038086
                                                         0.543592       0.671178
                                                         2.471054       2.771318
                                                         7.247821      -0.602920
                                                        22.555186       3.816904
                                                        72.147284     -14.600687
                                                       307.662624     262.551781
                          1       6    3dz2              0.077000       0.000000
                                                         0.154068       0.021989
                                                         0.543592       0.387505
                                                         2.471054       1.600021
                                                         7.247821      -0.348096
                                                        22.555186       2.203691
                                                        72.147284      -8.429711
                                                       307.662624     151.584341

                          1       7    4dx2              0.077000       0.002897
                                                         0.154068       0.042758
                                                         0.543592       0.171363
                                                         2.471054       0.010879
                                                         7.247821       0.664737
                                                        22.555186       0.000000
                                                        72.147284       0.000000
                                                       307.662624       0.000000
                          1       7    4dxy              0.077000       0.005018
                                                         0.154068       0.074059
                                                         0.543592       0.296810
                                                         2.471054       0.018844
                                                         7.247821       1.151358
                                                        22.555186       0.000000
                                                        72.147284       0.000000
                                                       307.662624       0.000000
                          1       7    4dxz              0.077000       0.005018
                                                         0.154068       0.074059
                                                         0.543592       0.296810
                                                         2.471054       0.018844
                                                         7.247821       1.151358
                                                        22.555186       0.000000
                                                        72.147284       0.000000
                                                       307.662624       0.000000
                          1       7    4dy2              0.077000       0.002897
                                                         0.154068       0.042758
                                                         0.543592       0.171363
                                                         2.471054       0.010879
                                                         7.247821       0.664737
                                                        22.555186       0.000000
                                                        72.147284       0.000000
                                                       307.662624       0.000000
                          1       7    4dyz              0.077000       0.005018
                                                         0.154068       0.074059
                                                         0.543592       0.296810
                                                         2.471054       0.018844
                                                         7.247821       1.151358
                                                        22.555186       0.000000
                                                        72.147284       0.000000
                                                       307.662624       0.000000
                          1       7    4dz2              0.077000       0.002897
                                                         0.154068       0.042758
                                                         0.543592       0.171363
                                                         2.471054       0.010879
                                                         7.247821       0.664737
                                                        22.555186       0.000000
                                                        72.147284       0.000000
                                                       307.662624       0.000000

                          1       8    4fx3              0.077000      -0.000682
                                                         0.154068      -0.004645
                                                         0.543592       0.364539
                                                         2.471054       2.324046
                                                         7.247821      -3.131662
                                                        22.555186       0.000000
                                                        72.147284       0.000000
                                                       307.662624       0.000000
                          1       8    4fx2y             0.077000      -0.001526
                                                         0.154068      -0.010386
                                                         0.543592       0.815134
                                                         2.471054       5.196725
                                                         7.247821      -7.002610
                                                        22.555186       0.000000
                                                        72.147284       0.000000
                                                       307.662624       0.000000
                          1       8    4fx2z             0.077000      -0.001526
                                                         0.154068      -0.010386
                                                         0.543592       0.815134
                                                         2.471054       5.196725
                                                         7.247821      -7.002610
                                                        22.555186       0.000000
                                                        72.147284       0.000000
                                                       307.662624       0.000000
                          1       8    4fxy2             0.077000      -0.001526
                                                         0.154068      -0.010386
                                                         0.543592       0.815134
                                                         2.471054       5.196725
                                                         7.247821      -7.002610
                                                        22.555186       0.000000
                                                        72.147284       0.000000
                                                       307.662624       0.000000
                          1       8    4fxyz             0.077000      -0.002643
                                                         0.154068      -0.017988
                                                         0.543592       1.411854
                                                         2.471054       9.000991
                                                         7.247821     -12.128876
                                                        22.555186       0.000000
                                                        72.147284       0.000000
                                                       307.662624       0.000000
                          1       8    4fxz2             0.077000      -0.001526
                                                         0.154068      -0.010386
                                                         0.543592       0.815134
                                                         2.471054       5.196725
                                                         7.247821      -7.002610
                                                        22.555186       0.000000
                                                        72.147284       0.000000
                                                       307.662624       0.000000
                          1       8    4fy3              0.077000      -0.000682
                                                         0.154068      -0.004645
                                                         0.543592       0.364539
                                                         2.471054       2.324046
                                                         7.247821      -3.131662
                                                        22.555186       0.000000
                                                        72.147284       0.000000
                                                       307.662624       0.000000
                          1       8    4fy2z             0.077000      -0.001526
                                                         0.154068      -0.010386
                                                         0.543592       0.815134
                                                         2.471054       5.196725
                                                         7.247821      -7.002610
                                                        22.555186       0.000000
                                                        72.147284       0.000000
                                                       307.662624       0.000000
                          1       8    4fyz2             0.077000      -0.001526
                                                         0.154068      -0.010386
                                                         0.543592       0.815134
                                                         2.471054       5.196725
                                                         7.247821      -7.002610
                                                        22.555186       0.000000
                                                        72.147284       0.000000
                                                       307.662624       0.000000
                          1       8    4fz3              0.077000      -0.000682
                                                         0.154068      -0.004645
                                                         0.543592       0.364539
                                                         2.471054       2.324046
                                                         7.247821      -3.131662
                                                        22.555186       0.000000
                                                        72.147284       0.000000
                                                       307.662624       0.000000

                          2       1    1s               51.912451      -1.311303
                                                         5.604127       1.619595
                                                         2.190751       0.633115
                                                         0.564844      -0.018786
                                                         0.202002      -0.016126

                          2       2    2s               51.912451      -0.638001
                                                         5.604127      -0.365237
                                                         2.190751       0.357352
                                                         0.564844       0.200580
                                                         0.202002       0.104412

                          2       3    3s               51.912451       1.146227
                                                         5.604127       3.181966
                                                         2.190751      -1.807965
                                                         0.564844       0.458760
                                                         0.202002       0.062644

                          3       1    1s            10449.738660       3.930369
                                                      1571.781775       7.442423
                                                       357.173295      10.621722
                                                       100.086675      10.913613
                                                        30.610026       3.977544

     RI Auxiliary Basis Set             RI_aug-DZVP-MOLOPT-ae_N_RI_054_s_p_d_f_g

       Number of orbital shell sets:                                          16
       Number of orbital shells:                                              16
       Number of primitive Cartesian functions:                               16
       Number of Cartesian basis functions:                                   67
       Number of spherical basis functions:                                   54
       Norm type:                                                              2

       Normalised Cartesian orbitals:

                        Set   Shell   Orbital            Exponent    Coefficient

                          1       1    1s                0.209271       0.220517

                          2       1    7px               0.291207       0.304924
                          2       1    7py               0.291207       0.304924
                          2       1    7pz               0.291207       0.304924

                          3       1   11dx2              0.301732       0.202184
                          3       1   11dxy              0.301732       0.350192
                          3       1   11dxz              0.301732       0.350192
                          3       1   11dy2              0.301732       0.202184
                          3       1   11dyz              0.301732       0.350192
                          3       1   11dz2              0.301732       0.202184

                          4       1    8px               0.693437       0.901985
                          4       1    8py               0.693437       0.901985
                          4       1    8pz               0.693437       0.901985

                          5       1    2s                0.734460       0.565440

                          6       1   12dx2              1.003695       1.656581
                          6       1   12dxy              1.003695       2.869282
                          6       1   12dxz              1.003695       2.869282
                          6       1   12dy2              1.003695       1.656581
                          6       1   12dyz              1.003695       2.869282
                          6       1   12dz2              1.003695       1.656581

                          7       1   15fx3              1.013799       1.518261
                          7       1   15fx2y             1.013799       3.394936
                          7       1   15fx2z             1.013799       3.394936
                          7       1   15fxy2             1.013799       3.394936
                          7       1   15fxyz             1.013799       5.880201
                          7       1   15fxz2             1.013799       3.394936
                          7       1   15fy3              1.013799       1.518261
                          7       1   15fy2z             1.013799       3.394936
                          7       1   15fyz2             1.013799       3.394936
                          7       1   15fz3              1.013799       1.518261

                          8       1   16gx4              1.348464       2.532176
                          8       1   16gx3y             1.348464       6.699507
                          8       1   16gx3z             1.348464       6.699507
                          8       1   16gx2y2            1.348464       8.649027
                          8       1   16gx2yz            1.348464      14.980554
                          8       1   16gx2z2            1.348464       8.649027
                          8       1   16gxy3             1.348464       6.699507
                          8       1   16gxy2z            1.348464      14.980554
                          8       1   16gxyz2            1.348464      14.980554
                          8       1   16gxz3             1.348464       6.699507
                          8       1   16gy4              1.348464       2.532176
                          8       1   16gy3z             1.348464       6.699507
                          8       1   16gy2z2            1.348464       8.649027
                          8       1   16gyz3             1.348464       6.699507
                          8       1   16gz4              1.348464       2.532176

                          9       1    3s                3.725390       1.911124

                         10       1   13dx2              4.818971      25.797611
                         10       1   13dxy              4.818971      44.682772
                         10       1   13dxz              4.818971      44.682772
                         10       1   13dy2              4.818971      25.797611
                         10       1   13dyz              4.818971      44.682772
                         10       1   13dz2              4.818971      25.797611

                         11       1    9px               5.331152      11.546928
                         11       1    9py               5.331152      11.546928
                         11       1    9pz               5.331152      11.546928

                         12       1    4s               18.701069       6.409290

                         13       1   14dx2             27.107511     530.049388
                         13       1   14dxy             27.107511     918.072471
                         13       1   14dxz             27.107511     918.072471
                         13       1   14dy2             27.107511     530.049388
                         13       1   14dyz             27.107511     918.072471
                         13       1   14dz2             27.107511     530.049388

                         14       1    5s               89.749847      20.781906

                         15       1   10px             150.097508     748.870874
                         15       1   10py             150.097508     748.870874
                         15       1   10pz             150.097508     748.870874

                         16       1    6s              424.471385      66.649425

       Atomic covalent radius [Angstrom]:                                  0.990

       Atomic van der Waals radius [Angstrom]:                             1.750

     The atoms of this atomic kind are PAW atoms (GAPW):
       Hard Gaussian function radius:                                      1.512
       Rho0 radius:                                                        1.512
       Maximum GTO radius used for PAW projector construction:            24.566

     GAPW Soft Basis Set                                 aug-DZVP-MOLOPT-ae_soft

       Number of orbital shell sets:                                           3
       Number of orbital shells:                                              12
       Number of primitive Cartesian functions:                                7
       Number of Cartesian basis functions:                                   39
       Number of spherical basis functions:                                   34
       Norm type:                                                              2

       Normalised Cartesian orbitals:

                        Set   Shell   Orbital            Exponent    Coefficient

                          1       1    1s                0.077000      -0.055972
                                                         0.154068      -0.150529
                                                         0.543592       0.356601
                                                         2.471054      -0.278595

                          1       2    2px               0.077000       0.000000
                                                         0.154068      -0.003270
                                                         0.543592       0.000805
                                                         2.471054      -1.527312
                          1       2    2py               0.077000       0.000000
                                                         0.154068      -0.003270
                                                         0.543592       0.000805
                                                         2.471054      -1.527312
                          1       2    2pz               0.077000       0.000000
                                                         0.154068      -0.003270
                                                         0.543592       0.000805
                                                         2.471054      -1.527312

                          1       3    3px               0.077000       0.000000
                                                         0.154068       0.000503
                                                         0.543592       0.626386
                                                         2.471054       0.587728
                          1       3    3py               0.077000       0.000000
                                                         0.154068       0.000503
                                                         0.543592       0.626386
                                                         2.471054       0.587728
                          1       3    3pz               0.077000       0.000000
                                                         0.154068       0.000503
                                                         0.543592       0.626386
                                                         2.471054       0.587728

                          1       4    4px               0.077000       0.000000
                                                         0.154068       0.138364
                                                         0.543592      -0.009132
                                                         2.471054       0.125424
                          1       4    4py               0.077000       0.000000
                                                         0.154068       0.138364
                                                         0.543592      -0.009132
                                                         2.471054       0.125424
                          1       4    4pz               0.077000       0.000000
                                                         0.154068       0.138364
                                                         0.543592      -0.009132
                                                         2.471054       0.125424

                          1       5    5px               0.077000       0.023858
                                                         0.154068       0.049234
                                                         0.543592       0.261090
                                                         2.471054       0.018714
                          1       5    5py               0.077000       0.023858
                                                         0.154068       0.049234
                                                         0.543592       0.261090
                                                         2.471054       0.018714
                          1       5    5pz               0.077000       0.023858
                                                         0.154068       0.049234
                                                         0.543592       0.261090
                                                         2.471054       0.018714

                          1       6    3dx2              0.077000       0.000000
                                                         0.154068       0.021989
                                                         0.543592       0.387505
                                                         2.471054       1.600021
                          1       6    3dxy              0.077000       0.000000
                                                         0.154068       0.038086
                                                         0.543592       0.671178
                                                         2.471054       2.771318
                          1       6    3dxz              0.077000       0.000000
                                                         0.154068       0.038086
                                                         0.543592       0.671178
                                                         2.471054       2.771318
                          1       6    3dy2              0.077000       0.000000
                                                         0.154068       0.021989
                                                         0.543592       0.387505
                                                         2.471054       1.600021
                          1       6    3dyz              0.077000       0.000000
                                                         0.154068       0.038086
                                                         0.543592       0.671178
                                                         2.471054       2.771318
                          1       6    3dz2              0.077000       0.000000
                                                         0.154068       0.021989
                                                         0.543592       0.387505
                                                         2.471054       1.600021

                          1       7    4dx2              0.077000       0.002897
                                                         0.154068       0.042758
                                                         0.543592       0.171363
                                                         2.471054       0.010879
                          1       7    4dxy              0.077000       0.005018
                                                         0.154068       0.074059
                                                         0.543592       0.296810
                                                         2.471054       0.018844
                          1       7    4dxz              0.077000       0.005018
                                                         0.154068       0.074059
                                                         0.543592       0.296810
                                                         2.471054       0.018844
                          1       7    4dy2              0.077000       0.002897
                                                         0.154068       0.042758
                                                         0.543592       0.171363
                                                         2.471054       0.010879
                          1       7    4dyz              0.077000       0.005018
                                                         0.154068       0.074059
                                                         0.543592       0.296810
                                                         2.471054       0.018844
                          1       7    4dz2              0.077000       0.002897
                                                         0.154068       0.042758
                                                         0.543592       0.171363
                                                         2.471054       0.010879

                          1       8    4fx3              0.077000      -0.000682
                                                         0.154068      -0.004645
                                                         0.543592       0.364539
                                                         2.471054       2.324046
                          1       8    4fx2y             0.077000      -0.001526
                                                         0.154068      -0.010386
                                                         0.543592       0.815134
                                                         2.471054       5.196725
                          1       8    4fx2z             0.077000      -0.001526
                                                         0.154068      -0.010386
                                                         0.543592       0.815134
                                                         2.471054       5.196725
                          1       8    4fxy2             0.077000      -0.001526
                                                         0.154068      -0.010386
                                                         0.543592       0.815134
                                                         2.471054       5.196725
                          1       8    4fxyz             0.077000      -0.002643
                                                         0.154068      -0.017988
                                                         0.543592       1.411854
                                                         2.471054       9.000991
                          1       8    4fxz2             0.077000      -0.001526
                                                         0.154068      -0.010386
                                                         0.543592       0.815134
                                                         2.471054       5.196725
                          1       8    4fy3              0.077000      -0.000682
                                                         0.154068      -0.004645
                                                         0.543592       0.364539
                                                         2.471054       2.324046
                          1       8    4fy2z             0.077000      -0.001526
                                                         0.154068      -0.010386
                                                         0.543592       0.815134
                                                         2.471054       5.196725
                          1       8    4fyz2             0.077000      -0.001526
                                                         0.154068      -0.010386
                                                         0.543592       0.815134
                                                         2.471054       5.196725
                          1       8    4fz3              0.077000      -0.000682
                                                         0.154068      -0.004645
                                                         0.543592       0.364539
                                                         2.471054       2.324046

                          2       1    1s                2.190751       0.633115
                                                         0.564844      -0.018786
                                                         0.202002      -0.016126

                          2       2    2s                2.190751       0.357352
                                                         0.564844       0.200580
                                                         0.202002       0.104412

                          2       3    3s                2.190751      -1.807965
                                                         0.564844       0.458760
                                                         0.202002       0.062644

                          3       1    1s         

     AE Potential information for                                            ALL

       Description:                                       All-electron potential
                                          Krack, Parrinello, PCCP 2, 2105 (2000)

       Gaussian exponent of the core charge distribution:               2.974420
       Electronic configuration (s p d ...):                           6  11   0

  5. Atomic kind: H                                     Number of atoms:       2

     Orbital Basis Set                                        aug-DZVP-MOLOPT-ae

       Number of orbital shell sets:                                           1
       Number of orbital shells:                                               5
       Number of primitive Cartesian functions:                                5
       Number of Cartesian basis functions:                                    9
       Number of spherical basis functions:                                    9
       Norm type:                                                              2

       Normalised Cartesian orbitals:

                        Set   Shell   Orbital            Exponent    Coefficient

                          1       1    2s                0.035000       0.000000
                                                         0.111920       0.009149
                                                         0.374948       0.205449
                                                         1.446686       0.373852
                                                        12.248855       0.310040

                          1       2    3s                0.035000       0.000000
                                                         0.111920       0.143650
                                                         0.374948       0.007287
                                                         1.446686      -0.188851
                                                        12.248855      -0.144753

                          1       3    4s                0.035000       0.090463
                                                         0.111920      -0.203934
                                                         0.374948      -0.000376
                                                         1.446686      -0.000051
                                                        12.248855       0.000000

                          1       4    3px               0.035000       0.000000
                                                         0.111920       0.007225
                                                         0.374948       0.280770
                                                         1.446686       0.896497
                                                        12.248855      -0.764411
                          1       4    3py               0.035000       0.000000
                                                         0.111920       0.007225
                                                         0.374948       0.280770
                                                         1.446686       0.896497
                                                        12.248855      -0.764411
                          1       4    3pz               0.035000       0.000000
                                                         0.111920       0.007225
                                                         0.374948       0.280770
                                                         1.446686       0.896497
                                                        12.248855      -0.764411

                          1       5    4px               0.035000       0.011331
                                                         0.111920       0.048737
                                                         0.374948       0.028490
                                                         1.446686       0.035587
                                                        12.248855       0.000000
                          1       5    4py               0.035000       0.011331
                                                         0.111920       0.048737
                                                         0.374948       0.028490
                                                         1.446686       0.035587
                                                        12.248855       0.000000
                          1       5    4pz               0.035000       0.011331
                                                         0.111920       0.048737
                                                         0.374948       0.028490
                                                         1.446686       0.035587
                                                        12.248855       0.000000

     RI Auxiliary Basis Set             RI_aug-DZVP-MOLOPT-ae_N_RI_005_s_p_d_f_g

       Number of orbital shell sets:                                           3
       Number of orbital shells:                                               3
       Number of primitive Cartesian functions:                                3
       Number of Cartesian basis functions:                                    5
       Number of spherical basis functions:                                    5
       Norm type:                                                              2

       Normalised Cartesian orbitals:

                        Set   Shell   Orbital            Exponent    Coefficient

                          1       1    1s                0.602033       0.487108

                          2       1    3px               1.106593       1.617801
                          2       1    3py               1.106593       1.617801
                          2       1    3pz               1.106593       1.617801

                          3       1    2s                2.055112       1.223311

       Atomic covalent radius [Angstrom]:                                  0.320

       Atomic van der Waals radius [Angstrom]:                             1.090

     The atoms of this atomic kind are PAW atoms (GAPW):
       Hard Gaussian function radius:                                      1.200
       Rho0 radius:                                                        1.200
       Maximum GTO radius used for PAW projector construction:            24.566

     GAPW Soft Basis Set                                 aug-DZVP-MOLOPT-ae_soft

       Number of orbital shell sets:                                           1
       Number of orbital shells:                                               5
       Number of primitive Cartesian functions:                                4
       Number of Cartesian basis functions:                                    9
       Number of spherical basis functions:                                    9
       Norm type:                                                              2

       Normalised Cartesian orbitals:

                        Set   Shell   Orbital            Exponent    Coefficient

                          1       1    2s                0.035000       0.000000
                                                         0.111920       0.009149
                                                         0.374948       0.205449
                                                         1.446686       0.373852

                          1       2    3s                0.035000       0.000000
                                                         0.111920       0.143650
                                                         0.374948       0.007287
                                                         1.446686      -0.188851

                          1       3    4s                0.035000       0.090463
                                                         0.111920      -0.203934
                                                         0.374948      -0.000376
                                                         1.446686      -0.000051

                          1       4    3px               0.035000       0.000000
                                                         0.111920       0.007225
                                                         0.374948       0.280770
                                                         1.446686       0.896497
                          1       4    3py               0.035000       0.000000
                                                         0.111920       0.007225
                                                         0.374948       0.280770
                                                         1.446686       0.896497
                          1       4    3pz               0.035000       0.000000
                                                         0.111920       0.007225
                                                         0.374948       0.280770
                                                         1.446686       0.896497

                          1       5    4px               0.035000       0.011331
                                                         0.111920       0.048737
                                                         0.374948       0.028490
                                                         1.446686       0.035587
                          1       5    4py               0.035000       0.011331
                                                         0.111920       0.048737
                                                         0.374948       0.028490
                                                         1.446686       0.035587
                          1       5    4pz               0.035000       0.011331
                                                         0.111920       0.048737
                                                         0.374948       0.028490
                                                         1.446686       0.035587

     AE Potential information for                                            ALL

       Description:                                       All-electron potential
                                          Krack, Parrinello, PCCP 2, 2105 (2000)

       Gaussian exponent of the core charge distribution:              12.500000
       Electronic configuration (s p d ...):                           1   0   0


 MOLECULE KIND INFORMATION


 All atoms are their own molecule, skipping detailed information


 TOTAL NUMBERS AND MAXIMUM NUMBERS

  Total number of            - Atomic kinds:                                   5
                             - Atoms:                                         15
                             - Shell sets:                                    33
                             - Shells:                                       150
                             - Primitive Cartesian functions:                202
                             - Cartesian basis functions:                    493
                             - Spherical basis functions:                    428

  Maximum angular momentum of the orbital basis functions:                     3


 MODULE QUICKSTEP: ATOMIC COORDINATES IN ANGSTROM

   Atom Kind Element         X             Y             Z       Z(eff)     Mass
      1    1 O     8     12.040520     16.283997     14.772480   8.0000  15.9994
      2    2 S    16     13.309265     16.965951     14.702497  16.0000  32.0650
      3    1 O     8     13.654905     17.802671     13.583302   8.0000  15.9994
      4    3 C     6     14.603315     15.770332     15.016796   6.0000  12.0107
      5    3 C     6     15.977750     16.064796     14.973643   6.0000  12.0107
      6    4 Cl   17     16.595766     17.648189     14.688809  17.0000  35.4530
      7    3 C     6     16.894393     15.037383     15.189584   6.0000  12.0107
      8    5 H     1     17.959480     15.254642     15.158762   1.0000   1.0079
      9    3 C     6     16.464171     13.735415     15.447222   6.0000  12.0107
     10    3 C     6     15.089608     13.445526     15.497799   6.0000  12.0107
     11    3 C     6     14.171734     14.470687     15.285398   6.0000  12.0107
     12    5 H     1     13.105192     14.261221     15.321273   1.0000   1.0079
     13    4 Cl   17     13.428297     18.147720     16.416698  17.0000  35.4530
     14    4 Cl   17     17.643130     12.507756     15.703062  17.0000  35.4530
     15    4 Cl   17     14.516822     11.852280     15.817186  17.0000  35.4530



 SCF PARAMETERS         Density guess:                                    ATOMIC
                        --------------------------------------------------------
                        max_scf:                                             500
                        max_scf_history:                                       0
                        max_diis:                                              4
                        --------------------------------------------------------
                        eps_scf:                                        1.00E-06
                        eps_scf_history:                                0.00E+00
                        eps_diis:                                       1.00E-01
                        eps_eigval:                                     1.00E-05
                        --------------------------------------------------------
                        level_shift [a.u.]:                             0.000000
                        added MOs                                       359    0
                        --------------------------------------------------------
                        Mixing method:                            BROYDEN_MIXING
                                                charge density mixing in g-space
                        --------------------------------------------------------
                        No outer SCF

 PW_GRID| Information for grid number                                          1
 PW_GRID| Grid distributed over                                   192 processors
 PW_GRID| Real space group dimensions                                   192    1
 PW_GRID| the grid is blocked:                                                NO
 PW_GRID| Cutoff [a.u.]                                                    250.0
 PW_GRID| spherical cutoff:                                                   NO
 PW_GRID|   Bounds   1           -202     202                Points:         405
 PW_GRID|   Bounds   2           -202     202                Points:         405
 PW_GRID|   Bounds   3           -202     202                Points:         405
 PW_GRID| Volume element (a.u.^3)  0.2743E-02     Volume (a.u.^3)    182205.0337
 PW_GRID| Grid span                                                    FULLSPACE
 PW_GRID|   Distribution                         Average         Max         Min
 PW_GRID|   G-Vectors                           345990.2      346275      345870
 PW_GRID|   G-Rays                                 854.3         855         854
 PW_GRID|   Real Space Points                   345990.2      492075      328050

 PW_GRID| Information for grid number                                          2
 PW_GRID| Number of the reference grid                                         1
 PW_GRID| Grid distributed over                                   192 processors
 PW_GRID| Real space group dimensions                                   192    1
 PW_GRID| the grid is blocked:                                                NO
 PW_GRID| Cutoff [a.u.]                                                     83.3
 PW_GRID| spherical cutoff:                                                   NO
 PW_GRID|   Bounds   1           -120     119                Points:         240
 PW_GRID|   Bounds   2           -120     119                Points:         240
 PW_GRID|   Bounds   3           -120     119                Points:         240
 PW_GRID| Volume element (a.u.^3)  0.1318E-01     Volume (a.u.^3)    182205.0337
 PW_GRID| Grid span                                                    FULLSPACE
 PW_GRID|   Distribution                         Average         Max         Min
 PW_GRID|   G-Vectors                            72000.0       72240       71760
 PW_GRID|   G-Rays                                 300.0         301         299
 PW_GRID|   Real Space Points                    72000.0      115200       57600

 PW_GRID| Information for grid number                                          3
 PW_GRID| Number of the reference grid                                         1
 PW_GRID| Grid distributed over                                   192 processors
 PW_GRID| Real space group dimensions                                    12   16
 PW_GRID| the grid is blocked:                                                NO
 PW_GRID| Cutoff [a.u.]                                                     27.8
 PW_GRID| spherical cutoff:                                                   NO
 PW_GRID|   Bounds   1            -67      67                Points:         135
 PW_GRID|   Bounds   2            -67      67                Points:         135
 PW_GRID|   Bounds   3            -67      67                Points:         135
 PW_GRID| Volume element (a.u.^3)  0.7406E-01     Volume (a.u.^3)    182205.0337
 PW_GRID| Grid span                                                    FULLSPACE
 PW_GRID|   Distribution                         Average         Max         Min
 PW_GRID|   G-Vectors                            12814.5       12960       12690
 PW_GRID|   G-Rays                                  94.9          96          94
 PW_GRID|   Real Space Points                    12814.5       14580       11880

 PW_GRID| Information for grid number                                          4
 PW_GRID| Number of the reference grid                                         1
 PW_GRID| Grid distributed over                                   192 processors
 PW_GRID| Real space group dimensions                                    12   16
 PW_GRID| the grid is blocked:                                                NO
 PW_GRID| Cutoff [a.u.]                                                      9.3
 PW_GRID| spherical cutoff:                                                   NO
 PW_GRID|   Bounds   1            -40      39                Points:          80
 PW_GRID|   Bounds   2            -40      39                Points:          80
 PW_GRID|   Bounds   3            -40      39                Points:          80
 PW_GRID| Volume element (a.u.^3)  0.3559         Volume (a.u.^3)    182205.0337
 PW_GRID| Grid span                                                    FULLSPACE
 PW_GRID|   Distribution                         Average         Max         Min
 PW_GRID|   G-Vectors                             2666.7        2800        2560
 PW_GRID|   G-Rays                                  33.3          35          32
 PW_GRID|   Real Space Points                     2666.7        2800        2400

 POISSON| Solver                                                         WAVELET
 POISSON| Wavelet| Scaling function                                           40
 POISSON| Periodicity                                                       NONE

 RS_GRID| Information for grid number                                          1
 RS_GRID|   Bounds   1           -202     202                Points:         405
 RS_GRID|   Bounds   2           -202     202                Points:         405
 RS_GRID|   Bounds   3           -202     202                Points:         405
 RS_GRID| Real space distribution over                                  4 groups
 RS_GRID| Real space distribution along direction                              1
 RS_GRID| Border size                                                         37
 RS_GRID| Real space distribution over                                  6 groups
 RS_GRID| Real space distribution along direction                              2
 RS_GRID| Border size                                                         37
 RS_GRID| Real space distribution over                                  8 groups
 RS_GRID| Real space distribution along direction                              3
 RS_GRID| Border size                                                         37
 RS_GRID|   Distribution                         Average         Max         Min
 RS_GRID|   Planes                                 175.2         176         175
 RS_GRID|   Distribution                         Average         Max         Min
 RS_GRID|   Planes                                 141.5         142         141
 RS_GRID|   Distribution                         Average         Max         Min
 RS_GRID|   Planes                                 124.6         125         124

 RS_GRID| Information for grid number                                          2
 RS_GRID|   Bounds   1           -120     119                Points:         240
 RS_GRID|   Bounds   2           -120     119                Points:         240
 RS_GRID|   Bounds   3           -120     119                Points:         240
 RS_GRID| Real space distribution over                                  4 groups
 RS_GRID| Real space distribution along direction                              1
 RS_GRID| Border size                                                         39
 RS_GRID| Real space distribution over                                  6 groups
 RS_GRID| Real space distribution along direction                              2
 RS_GRID| Border size                                                         39
 RS_GRID| Real space distribution over                                  8 groups
 RS_GRID| Real space distribution along direction                              3
 RS_GRID| Border size                                                         39
 RS_GRID|   Distribution                         Average         Max         Min
 RS_GRID|   Planes                                 138.0         138         138
 RS_GRID|   Distribution                         Average         Max         Min
 RS_GRID|   Planes                                 118.0         118         118
 RS_GRID|   Distribution                         Average         Max         Min
 RS_GRID|   Planes                                 108.0         108         108

 RS_GRID| Information for grid number                                          3
 RS_GRID|   Bounds   1            -67      67                Points:         135
 RS_GRID|   Bounds   2            -67      67                Points:         135
 RS_GRID|   Bounds   3            -67      67                Points:         135
 RS_GRID| Real space fully replicated
 RS_GRID| Group size                                                           1

 RS_GRID| Information for grid number                                          4
 RS_GRID|   Bounds   1            -40      39                Points:          80
 RS_GRID|   Bounds   2            -40      39                Points:          80
 RS_GRID|   Bounds   3            -40      39                Points:          80
 RS_GRID| Real space fully replicated
 RS_GRID| Group size                                                           1

  HFX_INFO| Replica ID:                                                        1
  HFX_INFO| FRACTION:                                               0.2500000000
  HFX_INFO| Interaction Potential:                                       COULOMB
  HFX_INFO| EPS_SCHWARZ:                                                 1.0E-10
  HFX_INFO| EPS_SCHWARZ_FORCES                                           1.0E-08
  HFX_INFO| EPS_STORAGE_SCALING:                                         1.0E+00
  HFX_INFO| NBINS:                                                            64
  HFX_INFO| BLOCK_SIZE:                                                        1
  HFX_INFO| Number of periodic shells considered:                           NONE
  HFX_INFO| Number of periodic cells considered:                            NONE


 OVERLAP MATRIX CONDITION NUMBER
 1-Norm Condition Number (Estimate)
   CN : |A|*|A^-1|:  3.292E+001 *  2.261E+004   = 7.444E+005  Log(1-CN):  5.8718
 1-Norm and 2-Norm Condition Numbers using Diagonalization
   CN : |A|*|A^-1|:  3.292E+001 *  3.664E+004   = 1.206E+006  Log(1-CN):  6.0814
   CN : max/min ev:  9.085E+000 /  6.953E-005   = 1.307E+005  Log(2-CN):  5.1161

 Extrapolation method: initial_guess

 Atomic guess: The first density matrix is obtained in terms of atomic orbitals
               and electronic configurations assigned to each atomic kind

 Guess for atomic kind: O

 Electronic structure
    Total number of core electrons                                          0.00
    Total number of valence electrons                                       8.00
    Total number of electrons                                               8.00
    Multiplicity                                                   not specified
    S      2.00  2.00
    P      4.00


 *******************************************************************************
                  Iteration          Convergence                     Energy [au]
 *******************************************************************************
                          1        0.848674                     -74.203659346590
                          2        0.676538                     -74.224350300929
                          3        0.118146E-01                 -74.325384117638
                          4        0.875023E-03                 -74.325411956579
                          5        0.262407E-04                 -74.325412100097
                          6        0.953985E-07                 -74.325412100225

 Energy components [Hartree]           Total Energy ::          -74.325412100225
                                        Band Energy ::          -40.703914598336
                                     Kinetic Energy ::           74.466117831459
                                   Potential Energy ::         -148.791529931684
                                      Virial (-V/T) ::            1.998110473121
                                        Core Energy ::         -102.666843544964
                                          XC Energy ::           -7.743421966388
                                     Coulomb Energy ::           36.084853411128

 Orbital energies  State     L     Occupation   Energy[a.u.]          Energy[eV]

                       1     0          2.000     -18.799663         -511.564844
                       2     0          2.000      -0.852501          -23.197720

                       1     1          4.000      -0.349897           -9.521179


 Total Electron Density at R=0:                                       292.094851

 Guess for atomic kind: S

 Electronic structure
    Total number of core electrons                                          0.00
    Total number of valence electrons                                      16.00
    Total number of electrons                                              16.00
    Multiplicity                                                   not specified
    S      2.00  2.00  2.00
    P      6.00  4.00


 *******************************************************************************
                  Iteration          Convergence                     Energy [au]
 *******************************************************************************
                          1        0.508992                    -396.532503655990
                          2        0.158529                    -396.545404359598
                          3        0.440887E-01                -396.549661500960
                          4        0.692753E-03                -396.550151447682
                          5        0.988290E-05                -396.550151571718
                          6        0.574825E-08                -396.550151571747

 Energy components [Hartree]           Total Energy ::         -396.550151571747
                                        Band Energy ::         -227.617519441937
                                     Kinetic Energy ::          396.442273376157
                                   Potential Energy ::         -792.992424947904
                                      Virial (-V/T) ::            2.000272115773
                                        Core Energy ::         -549.094947582507
                                          XC Energy ::          -24.160563523673
                                     Coulomb Energy ::          176.705359534434

 Orbital energies  State     L     Occupation   Energy[a.u.]          Energy[eV]

                       1     0          2.000     -87.724168        -2387.096014
                       2     0          2.000      -7.695851         -209.414757
                       3     0          2.000      -0.626682          -17.052872

                       1     1          6.000      -5.751215         -156.498516
                       2     1          4.000      -0.254207           -6.917329


 Total Electron Density at R=0:                                      2398.079628

 Guess for atomic kind: C

 Electronic structure
    Total number of core electrons                                          0.00
    Total number of valence electrons                                       6.00
    Total number of electrons                                               6.00
    Multiplicity                                                   not specified
    S      2.00  2.00
    P      2.00


 *******************************************************************************
                  Iteration          Convergence                     Energy [au]
 *******************************************************************************
                          1        0.133902                     -37.363061759844
                          2        0.102325                     -37.368472442707
                          3        0.860737E-03                 -37.376215693871
                          4        0.849047E-04                 -37.376216293501
                          5        0.219397E-06                 -37.376216298714

 Energy components [Hartree]           Total Energy ::          -37.376216298714
                                        Band Energy ::          -21.245708131867
                                     Kinetic Energy ::           37.464666877769
                                   Potential Energy ::          -74.840883176484
                                      Virial (-V/T) ::            1.997639093407
                                        Core Energy ::          -50.271057779086
                                          XC Energy ::           -4.736056292831
                                     Coulomb Energy ::           17.630897773203

 Orbital energies  State     L     Occupation   Energy[a.u.]          Energy[eV]

                       1     0          2.000      -9.941022         -270.508975
                       2     0          2.000      -0.490185          -13.338601

                       1     1          2.000      -0.191647           -5.214984


 Total Electron Density at R=0:                                       116.283880

 Guess for atomic kind: Cl

 Electronic structure
    Total number of core electrons                                          0.00
    Total number of valence electrons                                      17.00
    Total number of electrons                                              17.00
    Multiplicity                                                   not specified
    S      2.00  2.00  2.00
    P      6.00  5.00


 *******************************************************************************
                  Iteration          Convergence                     Energy [au]
 *******************************************************************************
                          1        0.517392                    -458.455859051752
                          2        0.243810                    -458.464690531367
                          3        0.671487E-01                -458.478698615368
                          4        0.145303E-02                -458.479677096186
                          5        0.218953E-04                -458.479677505587
                          6        0.497273E-06                -458.479677505696

 Energy components [Hartree]           Total Energy ::         -458.479677505696
                                        Band Energy ::         -264.702614025861
                                     Kinetic Energy ::          457.817894151359
                                   Potential Energy ::         -916.297571657055
                                      Virial (-V/T) ::            2.001445516575
                                        Core Energy ::         -634.218968290548
                                          XC Energy ::          -26.601809038855
                                     Coulomb Energy ::          202.341099823707

 Orbital energies  State     L     Occupation   Energy[a.u.]          Energy[eV]

                       1     0          2.000    -100.351583        -2730.705436
                       2     0          2.000      -9.211096         -250.646660
                       3     0          2.000      -0.768248          -20.905079

                       1     1          6.000      -7.068224         -192.336158
                       2     1          5.000      -0.326284           -8.878629


 Total Electron Density at R=0:                                      2902.234641

 Guess for atomic kind: H

 Electronic structure
    Total number of core electrons                                          0.00
    Total number of valence electrons                                       1.00
    Total number of electrons                                               1.00
    Multiplicity                                                   not specified
    S      1.00


 *******************************************************************************
                  Iteration          Convergence                     Energy [au]
 *******************************************************************************
                          1        0.100530E-01                  -0.443985550189
                          2        0.945329E-03                  -0.444090029920
                          3        0.103025E-03                  -0.444092117382
                          4        0.802727E-07                  -0.444092129626

 Energy components [Hartree]           Total Energy ::           -0.444092129626
                                        Band Energy ::           -0.233486998571
                                     Kinetic Energy ::            0.420413643923
                                   Potential Energy ::           -0.864505773549
                                      Virial (-V/T) ::            2.056321877382
                                        Core Energy ::           -0.493965249450
                                          XC Energy ::           -0.230662915809
                                     Coulomb Energy ::            0.280536035634

 Orbital energies  State     L     Occupation   Energy[a.u.]          Energy[eV]

                       1     0          1.000      -0.233487           -6.353504


 Total Electron Density at R=0:                                         0.246678
 Re-scaling the density matrix to get the right number of electrons
                  # Electrons              Trace(P)               Scaling factor
                          138               138.000                        1.000

 Number of electrons:                                                        138
 Number of occupied orbitals:                                                 69
 Number of molecular orbitals:                                               428

 Number of orbital functions:                                                428
 Number of independent orbital functions:                                    428


 SCF WAVEFUNCTION OPTIMIZATION

  Step     Update method      Time    Convergence         Total energy    Change
  ------------------------------------------------------------------------------

  HFX_MEM_INFO| Est. max. program size before HFX [MiB]:                     802
  HFX_MEM_INFO| Number of cart. primitive ERI's calculated:         800367159043
  HFX_MEM_INFO| Number of sph. ERI's calculated:                      4862776632
  HFX_MEM_INFO| Number of sph. ERI's stored in-core:                  4862776632
  HFX_MEM_INFO| Number of sph. ERI's stored on disk:                           0
  HFX_MEM_INFO| Number of sph. ERI's calculated on the fly:                    0
  HFX_MEM_INFO| Total memory consumption ERI's RAM [MiB]:                  16167
  HFX_MEM_INFO| Whereof max-vals [MiB]:                                        6
  HFX_MEM_INFO| Total compression factor ERI's RAM:                         2.29
  HFX_MEM_INFO| Total memory consumption ERI's disk [MiB]:                     0
  HFX_MEM_INFO| Total compression factor ERI's disk:                        0.00
  HFX_MEM_INFO| Size of density/Fock matrix [MiB]:                             0
  HFX_MEM_INFO| Size of buffers [MiB]:                                        24
  HFX_MEM_INFO| Est. max. program size after HFX  [MiB]:                    1418

     1 NoMix/Diag. 0.10E+00   48.1     1.61807838     -2620.5632468147 -2.62E+03
     2 Broy./Diag. 0.10E+00    1.6     0.13102557     -2613.7271896559  6.84E+00
     3 Broy./Diag. 0.10E+00    1.0     0.03833922     -2613.0789139425  6.48E-01
     4 Broy./Diag. 0.10E+00    1.0     0.29763772     -2614.2911236320 -1.21E+00
     5 Broy./Diag. 0.10E+00    0.9     0.07157660     -2617.0242848567 -2.73E+00
     6 Broy./Diag. 0.10E+00    0.9     0.08567791     -2616.7278720383  2.96E-01
     7 Broy./Diag. 0.10E+00    0.9     0.10322108     -2616.1254916374  6.02E-01
     8 Broy./Diag. 0.10E+00    1.0     0.02940173     -2616.6795451511 -5.54E-01
     9 Broy./Diag. 0.10E+00    0.9     0.01035045     -2616.6979775674 -1.84E-02
    10 Broy./Diag. 0.10E+00    0.9     0.01346867     -2616.7365035768 -3.85E-02
    11 Broy./Diag. 0.10E+00    0.9     0.00873180     -2616.9270270582 -1.91E-01
    12 Broy./Diag. 0.10E+00    1.0     0.00129517     -2616.9286408186 -1.61E-03
    13 Broy./Diag. 0.10E+00    0.9     0.00909001     -2616.9718048481 -4.32E-02
    14 Broy./Diag. 0.10E+00    1.0     0.00561083     -2617.0187347295 -4.69E-02
    15 Broy./Diag. 0.10E+00    0.9     0.00087976     -2617.0030512331  1.57E-02
    16 Broy./Diag. 0.10E+00    0.9     0.00122618     -2616.9995186426  3.53E-03
    17 Broy./Diag. 0.10E+00    0.9     0.00433339     -2616.9885516513  1.10E-02
    18 Broy./Diag. 0.10E+00    0.9     0.00521743     -2617.0165780384 -2.80E-02
    19 Broy./Diag. 0.10E+00    0.9     0.00349499     -2617.0623387846 -4.58E-02
    20 Broy./Diag. 0.10E+00    0.9     0.00194727     -2617.0628090269 -4.70E-04
    21 Broy./Diag. 0.10E+00    0.9     0.00252392     -2617.0615029257  1.31E-03
    22 Broy./Diag. 0.10E+00    0.9     0.00250065     -2617.0598076142  1.70E-03
    23 Broy./Diag. 0.10E+00    0.9     0.00059306     -2617.0561194723  3.69E-03
    24 Broy./Diag. 0.10E+00    0.9     0.00177216     -2617.0608314288 -4.71E-03
    25 Broy./Diag. 0.10E+00    0.9     0.00081789     -2617.0538139083  7.02E-03
    26 Broy./Diag. 0.10E+00    0.9     0.00030906     -2617.0489586155  4.86E-03
    27 Broy./Diag. 0.10E+00    0.9     0.00089968     -2617.0471883829  1.77E-03
    28 Broy./Diag. 0.10E+00    0.9     0.00026437     -2617.0494994885 -2.31E-03
    29 Broy./Diag. 0.10E+00    0.9     0.00050647     -2617.0506884686 -1.19E-03
    30 Broy./Diag. 0.10E+00    0.9     0.00040541     -2617.0509013463 -2.13E-04
    31 Broy./Diag. 0.10E+00    1.0     0.00040030     -2617.0509444090 -4.31E-05
    32 Broy./Diag. 0.10E+00    0.9     0.00032778     -2617.0506627356  2.82E-04
    33 Broy./Diag. 0.10E+00    0.9     0.00027153     -2617.0490760478  1.59E-03
    34 Broy./Diag. 0.10E+00    0.9     0.00053173     -2617.0482285869  8.47E-04
    35 Broy./Diag. 0.10E+00    0.9     0.00018360     -2617.0485061388 -2.78E-04
    36 Broy./Diag. 0.10E+00    1.0     0.00002917     -2617.0480746863  4.31E-04
    37 Broy./Diag. 0.10E+00    1.0     0.00013442     -2617.0477442762  3.30E-04
    38 Broy./Diag. 0.10E+00    0.9     0.00009642     -2617.0485954409 -8.51E-04
    39 Broy./Diag. 0.10E+00    0.9     0.00010175     -2617.0480950504  5.00E-04
    40 Broy./Diag. 0.10E+00    0.9     0.00020885     -2617.0467751010  1.32E-03
    41 Broy./Diag. 0.10E+00    1.0     0.00007519     -2617.0473447341 -5.70E-04
    42 Broy./Diag. 0.10E+00    0.9     0.00002585     -2617.0471622807  1.82E-04
    43 Broy./Diag. 0.10E+00    1.0     0.00000654     -2617.0470048338  1.57E-04
    44 Broy./Diag. 0.10E+00    1.0     0.00004029     -2617.0468757158  1.29E-04
    45 Broy./Diag. 0.10E+00    1.0     0.00005534     -2617.0468813070 -5.59E-06
    46 Broy./Diag. 0.10E+00    1.0     0.00002532     -2617.0469682044 -8.69E-05
    47 Broy./Diag. 0.10E+00    1.0     0.00005194     -2617.0468894898  7.87E-05
    48 Broy./Diag. 0.10E+00    0.9     0.00002620     -2617.0469055567 -1.61E-05
    49 Broy./Diag. 0.10E+00    0.9     0.00001517     -2617.0469020999  3.46E-06
    50 Broy./Diag. 0.10E+00    0.8     0.00001101     -2617.0469287253 -2.66E-05
    51 Broy./Diag. 0.10E+00    1.0     0.00004839     -2617.0470603338 -1.32E-04
    52 Broy./Diag. 0.10E+00    1.0     0.00007564     -2617.0471645345 -1.04E-04
    53 Broy./Diag. 0.10E+00    1.0     0.00007546     -2617.0468152172  3.49E-04
    54 Broy./Diag. 0.10E+00    0.9     0.00003963     -2617.0465930169  2.22E-04
    55 Broy./Diag. 0.10E+00    0.9     0.00002335     -2617.0468288095 -2.36E-04
    56 Broy./Diag. 0.10E+00    1.0     0.00005426     -2617.0470897333 -2.61E-04
    57 Broy./Diag. 0.10E+00    0.9     0.00003471     -2617.0469738504  1.16E-04
    58 Broy./Diag. 0.10E+00    0.9     0.00002941     -2617.0469395118  3.43E-05
    59 Broy./Diag. 0.10E+00    0.9     0.00002908     -2617.0468597047  7.98E-05
    60 Broy./Diag. 0.10E+00    1.0     0.00002219     -2617.0469478419 -8.81E-05
    61 Broy./Diag. 0.10E+00    0.9     0.00001056     -2617.0470963085 -1.48E-04
    62 Broy./Diag. 0.10E+00    0.9     0.00001296     -2617.0470218291  7.45E-05
    63 Broy./Diag. 0.10E+00    0.9     0.00001319     -2617.0469186637  1.03E-04
    64 Broy./Diag. 0.10E+00    0.9     0.00001359     -2617.0469537337 -3.51E-05
    65 Broy./Diag. 0.10E+00    0.9     0.00000521     -2617.0468824577  7.13E-05
    66 Broy./Diag. 0.10E+00    0.9     0.00000299     -2617.0468986572 -1.62E-05
    67 Broy./Diag. 0.10E+00    0.9     0.00000708     -2617.0469315895 -3.29E-05
    68 Broy./Diag. 0.10E+00    1.0     0.00000912     -2617.0469060418  2.55E-05
    69 Broy./Diag. 0.10E+00    0.9     0.00000346     -2617.0469403660 -3.43E-05
    70 Broy./Diag. 0.10E+00    0.9     0.00000249     -2617.0469569292 -1.66E-05
    71 Broy./Diag. 0.10E+00    0.9     0.00000468     -2617.0469521482  4.78E-06
    72 Broy./Diag. 0.10E+00    0.9     0.00000185     -2617.0469459824  6.17E-06
    73 Broy./Diag. 0.10E+00    0.9     0.00000375     -2617.0469626067 -1.66E-05
    74 Broy./Diag. 0.10E+00    0.9     0.00000250     -2617.0469760622 -1.35E-05
    75 Broy./Diag. 0.10E+00    0.9     0.00000189     -2617.0469675144  8.55E-06
    76 Broy./Diag. 0.10E+00    0.9     0.00000160     -2617.0469594600  8.05E-06
    77 Broy./Diag. 0.10E+00    0.9     0.00000106     -2617.0469598454 -3.85E-07
    78 Broy./Diag. 0.10E+00    1.0     0.00000045     -2617.0469590249  8.20E-07

  *** SCF run converged in    78 steps ***


  Electronic density on regular grids:        -80.1500046081       57.8499953919
  Core density on regular grids:              138.0000000000        0.0000000000
  Hard and soft densities (Lebedev):         -526.1023934175     -468.2523973760
  Total Rho_soft + Rho1_hard - Rho1_soft     -138.0000006497
  Total charge density (r-space):              -0.0000006497
  Total Rho_soft + Rho0_soft (g-space):         0.0000004639

  Overlap energy of the core charge distribution:               0.00001125481771
  Self energy of the core charge distribution:              -1290.63086580346021
  Core Hamiltonian energy:                                  -1346.22280086763385
  Hartree energy:                                             346.49164874006982
  Exchange-correlation energy:                                -29.34400257082846
  Hartree-Fock Exchange energy:                               -45.79956538591630

  GAPW| Exc from hard and soft atomic rho1:                  -112.71891472646445
  GAPW| local Eh = 1 center integrals:                       -138.82246966552191

  Total energy:                                             -2617.04695902493768

 !-----------------------------------------------------------------------------!
                     Mulliken Population Analysis

 #  Atom  Element  Kind  Atomic population                           Net charge
       1     O        1          9.227405                             -1.227405
       2     S        2         14.369622                              1.630378
       3     O        1          9.042712                             -1.042712
       4     C        3          5.393320                              0.606680
       5     C        3          5.622669                              0.377331
       6     Cl       4         17.652804                             -0.652804
       7     C        3          5.821880                              0.178120
       8     H        5          0.723207                              0.276793
       9     C        3          5.617666                              0.382334
      10     C        3          5.674277                              0.325723
      11     C        3          5.755151                              0.244849
      12     H        5          0.674835                              0.325165
      13     Cl       4         17.247763                             -0.247763
      14     Cl       4         17.580294                             -0.580294
      15     Cl       4         17.596394                             -0.596394
 # Total charge                            138.000000                 -0.000000

 !-----------------------------------------------------------------------------!

 !-----------------------------------------------------------------------------!
                           Hirshfeld Charges

  #Atom  Element  Kind  Ref Charge     Population                    Net charge
      1       O      1       8.000          8.002                        -0.002
      2       S      2      16.000         16.378                        -0.378
      3       O      1       8.000          7.951                         0.049
      4       C      3       6.000          5.742                         0.258
      5       C      3       6.000          5.628                         0.372
      6       Cl     4      17.000         17.415                        -0.415
      7       C      3       6.000          6.346                        -0.346
      8       H      5       1.000          0.492                         0.508
      9       C      3       6.000          5.632                         0.368
     10       C      3       6.000          5.647                         0.353
     11       C      3       6.000          6.313                        -0.313
     12       H      5       1.000          0.487                         0.513
     13       Cl     4      17.000         17.151                        -0.151
     14       Cl     4      17.000         17.404                        -0.404
     15       Cl     4      17.000         17.409                        -0.409

  Total Charge                                                            0.004
 !-----------------------------------------------------------------------------!
  
 -------------------------------------------------------------------------------
 -                                                                             -
 -                          BANDSTRUCTURE CALCULATION                          -
 -                                                                             -
 -------------------------------------------------------------------------------
  
 Number of occupied molecular orbitals (MOs) = Number of occupied bands       69
 Number of unoccupied (= virtual) MOs = Number of unoccupied bands           359
 Number of Gaussian basis functions for MOs                                  428
 K-point mesh for the density of states (DOS) and the self-energy      1   1   1
  
 -------------------------------------------------------------------------------
 -                                                                             -
 -                                GW CALCULATION                               -
 -                                                                             -
 -------------------------------------------------------------------------------
  
 Input: Number of time/freq. points                                           30
 Input: ω_max for fitting Σ(iω) (eV)                                        10.0
 Input: Filter threshold for sparse tensor operations                    1.0E-11
 Input: Apply Hedin shift                                                      F
  
 Number of auxiliary Gaussian basis functions for χ, ε, W                    448
 Cutoff radius for the truncated Coulomb operator in Σ^x:               2645.9 Å
 Cutoff radius for the truncated Coulomb operator in RI metric:            9.0 Å
 Regularization parameter of RI                                          1.0E-02
 Regularization parameter of minimax grids                               1.0E-06
 Lattice sum size for V(k):                                                    3
  
 K-point mesh 1 for χ, ε, W                                            1   1   1
 K-point mesh 2 for χ, ε, W (for k-point extrapolation of W)           1   1   1
 Approximate the k-point extrapolation                                         F
 Group size for tensor operations                                            192
 
 Computed 3-center integrals (µν|P), execution time                        0.3 s
 Percentage of non-zero (µν|P)                                         100.000 %
 Max. distance between µ,ν in non-zero (µν|P)                              7.1 A
 Required memory if storing all 3-center integrals (µν|P)                   0 GB
 
 Number of i and j atoms in M_λνP(τ), N_νλQ(τ):                              157
 Number of inner loop atoms for µ in M_λνP = sum_µ (µν|P) G_µλ                15
 
 SCF direct band gap (eV)                                                   5.22
 Max. SCF eigval diff. (eV)                                             61359.34
 E-Range for minimax grid                                               11746.12
 Number of Padé parameters for analytic continuation:                          5
 
 Computed χ(iτ,k=0) for time point            1 / 30,    Execution time    0.4 s
 Computed χ(iτ,k=0) for time point            2 / 30,    Execution time    0.3 s
 Computed χ(iτ,k=0) for time point            3 / 30,    Execution time    0.3 s
 Computed χ(iτ,k=0) for time point            4 / 30,    Execution time    0.3 s
 Computed χ(iτ,k=0) for time point            5 / 30,    Execution time    0.3 s
 Computed χ(iτ,k=0) for time point            6 / 30,    Execution time    0.2 s
 Computed χ(iτ,k=0) for time point            7 / 30,    Execution time    0.3 s
 Computed χ(iτ,k=0) for time point            8 / 30,    Execution time    0.3 s
 Computed χ(iτ,k=0) for time point            9 / 30,    Execution time    0.3 s
 Computed χ(iτ,k=0) for time point           10 / 30,    Execution time    0.2 s
 Computed χ(iτ,k=0) for time point           11 / 30,    Execution time    0.3 s
 Computed χ(iτ,k=0) for time point           12 / 30,    Execution time    0.3 s
 Computed χ(iτ,k=0) for time point           13 / 30,    Execution time    0.2 s
 Computed χ(iτ,k=0) for time point           14 / 30,    Execution time    0.3 s
 Computed χ(iτ,k=0) for time point           15 / 30,    Execution time    0.3 s
 Computed χ(iτ,k=0) for time point           16 / 30,    Execution time    0.3 s
 Computed χ(iτ,k=0) for time point           17 / 30,    Execution time    0.3 s
 Computed χ(iτ,k=0) for time point           18 / 30,    Execution time    0.3 s
 Computed χ(iτ,k=0) for time point           19 / 30,    Execution time    0.3 s
 Computed χ(iτ,k=0) for time point           20 / 30,    Execution time    0.3 s
 Computed χ(iτ,k=0) for time point           21 / 30,    Execution time    0.2 s
 Computed χ(iτ,k=0) for time point           22 / 30,    Execution time    0.3 s
 Computed χ(iτ,k=0) for time point           23 / 30,    Execution time    0.3 s
 Computed χ(iτ,k=0) for time point           24 / 30,    Execution time    0.2 s
 Computed χ(iτ,k=0) for time point           25 / 30,    Execution time    0.2 s
 Computed χ(iτ,k=0) for time point           26 / 30,    Execution time    0.3 s
 Computed χ(iτ,k=0) for time point           27 / 30,    Execution time    0.2 s
 Computed χ(iτ,k=0) for time point           28 / 30,    Execution time    0.2 s
 Computed χ(iτ,k=0) for time point           29 / 30,    Execution time    0.3 s
 Computed χ(iτ,k=0) for time point           30 / 30,    Execution time    0.2 s
 
 Computed W(iτ,k) for k-point batch           1 /  1,    Execution time    2.0 s
 
 Computed Σ^x(k=0),                                      Execution time    0.4 s
 
 Computed Σ^c(iτ,k=0) for time point          1 / 30,    Execution time    0.4 s
 Computed Σ^c(iτ,k=0) for time point          2 / 30,    Execution time    0.4 s
 Computed Σ^c(iτ,k=0) for time point          3 / 30,    Execution time    0.4 s
 Computed Σ^c(iτ,k=0) for time point          4 / 30,    Execution time    0.4 s
 Computed Σ^c(iτ,k=0) for time point          5 / 30,    Execution time    0.4 s
 Computed Σ^c(iτ,k=0) for time point          6 / 30,    Execution time    0.5 s
 Computed Σ^c(iτ,k=0) for time point          7 / 30,    Execution time    0.4 s
 Computed Σ^c(iτ,k=0) for time point          8 / 30,    Execution time    0.5 s
 Computed Σ^c(iτ,k=0) for time point          9 / 30,    Execution time    0.4 s
 Computed Σ^c(iτ,k=0) for time point         10 / 30,    Execution time    0.5 s
 Computed Σ^c(iτ,k=0) for time point         11 / 30,    Execution time    0.4 s
 Computed Σ^c(iτ,k=0) for time point         12 / 30,    Execution time    0.4 s
 Computed Σ^c(iτ,k=0) for time point         13 / 30,    Execution time    0.5 s
 Computed Σ^c(iτ,k=0) for time point         14 / 30,    Execution time    0.4 s
 Computed Σ^c(iτ,k=0) for time point         15 / 30,    Execution time    0.4 s
 Computed Σ^c(iτ,k=0) for time point         16 / 30,    Execution time    0.5 s
 Computed Σ^c(iτ,k=0) for time point         17 / 30,    Execution time    0.4 s
 Computed Σ^c(iτ,k=0) for time point         18 / 30,    Execution time    0.4 s
 Computed Σ^c(iτ,k=0) for time point         19 / 30,    Execution time    0.5 s
 Computed Σ^c(iτ,k=0) for time point         20 / 30,    Execution time    0.5 s
 Computed Σ^c(iτ,k=0) for time point         21 / 30,    Execution time    0.4 s
 Computed Σ^c(iτ,k=0) for time point         22 / 30,    Execution time    0.5 s
 Computed Σ^c(iτ,k=0) for time point         23 / 30,    Execution time    0.4 s
 Computed Σ^c(iτ,k=0) for time point         24 / 30,    Execution time    0.4 s
 Computed Σ^c(iτ,k=0) for time point         25 / 30,    Execution time    0.5 s
 Computed Σ^c(iτ,k=0) for time point         26 / 30,    Execution time    0.4 s
 Computed Σ^c(iτ,k=0) for time point         27 / 30,    Execution time    0.4 s
 Computed Σ^c(iτ,k=0) for time point         28 / 30,    Execution time    0.5 s
 Computed Σ^c(iτ,k=0) for time point         29 / 30,    Execution time    0.4 s
 Computed Σ^c(iτ,k=0) for time point         30 / 30,    Execution time    0.5 s
 
 Sparsity of Σ^c(iτ,k=0): Percentage of skipped atom pairs:                0.0 %

 
 SCF valence band maximum (eV):                                           -8.018
 SCF conduction band minimum (eV):                                        -2.795
 SCF indirect band gap (eV):                                               5.224
 SCF direct band gap (eV):                                                 5.224
 
 G0W0 valence band maximum (eV):                                          -9.038
 G0W0 conduction band minimum (eV):                                       -0.694
 G0W0 indirect band gap (eV):                                              8.344
 G0W0 direct band gap (eV):                                                8.344
 
 Hartree-Fock with SCF orbitals valence band maximum (eV):                -9.504
 Hartree-Fock with SCF orbitals conduction band minimum (eV)               1.360
 Hartree-Fock with SCF orbitals indirect band gap (eV):                   10.864
 Hartree-Fock with SCF orbitals direct band gap (eV):                     10.864

 ENERGY| Total FORCE_EVAL ( QS ) energy [hartree]          -2617.046959024937678

 -------------------------------------------------------------------------------
 -                                                                             -
 -                                DBCSR STATISTICS                             -
 -                                                                             -
 -------------------------------------------------------------------------------
 COUNTER                                    TOTAL       BLAS       SMM       ACC
 flops     9 x     9 x    12               454896     100.0%      0.0%      0.0%     
 flops     9 x    34 x    12              1145664     100.0%      0.0%      0.0%     
 flops    30 x     9 x    12              2527200     100.0%      0.0%      0.0%     
 flops    34 x     9 x    12              4582656     100.0%      0.0%      0.0%     
 flops     9 x    30 x    12              5559840     100.0%      0.0%      0.0%     
 flops     9 x     9 x    32             15769728     100.0%      0.0%      0.0%     
 flops    34 x    34 x    12             32460480     100.0%      0.0%      0.0%     
 flops    34 x    30 x    12             32460480     100.0%      0.0%      0.0%     
 flops     9 x    34 x    32             39716352     100.0%      0.0%      0.0%     
 flops    30 x    34 x    12             43917120     100.0%      0.0%      0.0%     
 flops    30 x    30 x    12             60652800     100.0%      0.0%      0.0%     
 flops    30 x     9 x    32             87609600     100.0%      0.0%      0.0%     
 flops    34 x     9 x    32            158865408     100.0%      0.0%      0.0%     
 flops     9 x    30 x    32            192741120     100.0%      0.0%      0.0%     
 flops    34 x    34 x    32           1125296640     100.0%      0.0%      0.0%     
 flops    34 x    30 x    32           1125296640     100.0%      0.0%      0.0%     
 flops    30 x    34 x    32           1522460160     100.0%      0.0%      0.0%     
 flops    30 x    30 x    32           2102630400     100.0%      0.0%      0.0%     
 flops inhomo. stacks                           0       0.0%      0.0%      0.0%
 flops total                         6.554147E+09     100.0%      0.0%      0.0%
 flops max/rank                    213.390528E+06     100.0%      0.0%      0.0%
 matmuls inhomo. stacks                         0       0.0%      0.0%      0.0%
 matmuls total                             131040     100.0%      0.0%      0.0%
 number of processed stacks                125580     100.0%      0.0%      0.0%
 average stack size                                     1.0       0.0       0.0
 marketing flops                     1.971794E+09
 -------------------------------------------------------------------------------
 # multiplications                             78
 max memory usage/rank              18.967949E+09
 # max total images/rank                        3
 # max 3D layers                                1
 # MPI messages exchanged                  658944
 MPI messages size (bytes):
  total size                         3.429204E+09
  min size                           0.000000E+00
  max size                          24.064000E+03
  average size                       5.204091E+03
 MPI breakdown and total messages size (bytes):
             size <=      128              368472                        0
       128 < size <=     8192              111462                586999296
      8192 < size <=    32768              179010               2842205184
     32768 < size <=   131072                   0                        0
    131072 < size <=  4194304                   0                        0
   4194304 < size <= 16777216                   0                        0
  16777216 < size                               0                        0
 -------------------------------------------------------------------------------

 *** WARNING in dbcsr_mm.F:301 :: Using a non-square number of MPI ranks ***
 *** might lead to poor performance. Used ranks: 192 Suggested: 196 400  ***

 -------------------------------------------------------------------------------
 -                                                                             -
 -                      DBCSR MESSAGE PASSING PERFORMANCE                      -
 -                                                                             -
 -------------------------------------------------------------------------------
 ROUTINE             CALLS      AVE VOLUME [Bytes]
 MP_Bcast               19                     12.
 MP_Allreduce          524                     10.
 MP_Alltoall          5606                  99504.
 MP_ISend             7332                   3876.
 MP_IRecv             7488                   3432.
 -------------------------------------------------------------------------------

 -------------------------------------------------------------------------------
 -                                                                             -
 -                                DBM STATISTICS                               -
 -                                                                             -
 -------------------------------------------------------------------------------
    M  x    N  x    K                                          COUNT     PERCENT
    ?  x    ?  x    ?                                          89100      44.49%
  ???  x   ??  x   ??                                          37752      18.85%
   ??  x   ??  x  ???                                          17532       8.75%
  ???  x    ?  x   ??                                          12584       6.28%
    ?  x   ??  x  ???                                           5844       2.92%
   ??  x    ?  x  ???                                           5844       2.92%
  ???  x   ??  x    ?                                           5808       2.90%
   ??  x   ??  x >999                                           4896       2.44%
   ??  x  ???  x   ??                                           3627       1.81%
   ??  x >999  x   ??                                           2418       1.21%
   ??  x   ??  x   ??                                           2196       1.10%
    ?  x    ?  x  ???                                           1948       0.97%
  ???  x    ?  x    ?                                           1936       0.97%
    ?  x   ??  x >999                                           1632       0.81%
   ??  x    ?  x >999                                           1632       0.81%
    ?  x  ???  x   ??                                           1209       0.60%
    ?  x >999  x   ??                                            806       0.40%
    ?  x   ??  x   ??                                            732       0.37%
   ??  x    ?  x   ??                                            732       0.37%
   ??  x  ???  x    ?                                            558       0.28%
    ?  x    ?  x >999                                            544       0.27%
   ??  x >999  x    ?                                            372       0.19%
    ?  x    ?  x   ??                                            244       0.12%
    ?  x  ???  x    ?                                            186       0.09%
    ?  x >999  x    ?                                            124       0.06%
 -------------------------------------------------------------------------------

 -------------------------------------------------------------------------------
 -                                                                             -
 -                                GRID STATISTICS                              -
 -                                                                             -
 -------------------------------------------------------------------------------
 LP    KERNEL             BACKEND                              COUNT     PERCENT
 3     collocate ortho    CPU                                  16906      21.35%
 3     integrate ortho    CPU                                  16906      21.35%
 6     collocate ortho    CPU                                  10665      13.47%
 6     integrate ortho    CPU                                  10665      13.47%
 0     collocate ortho    CPU                                   6715       8.48%
 0     integrate ortho    CPU                                   6715       8.48%
 4     collocate ortho    CPU                                   2054       2.59%
 4     integrate ortho    CPU                                   2054       2.59%
 1     collocate ortho    CPU                                   1975       2.49%
 1     integrate ortho    CPU                                   1975       2.49%
 2     collocate general  CPU                                   1185       1.50%
 2     integrate general  CPU                                   1185       1.50%
 2     collocate ortho    CPU                                     79       0.10%
 2     integrate ortho    CPU                                     79       0.10%
 0     collocate general  CPU                                     15       0.02%
 0     integrate general  CPU                                     15       0.02%
 -------------------------------------------------------------------------------

 -------------------------------------------------------------------------------
 -                                                                             -
 -                          OFFLOAD MEMPOOL STATISTICS                         -
 -                                                                             -
 -------------------------------------------------------------------------------
 Memory consumption                Number of allocations  Used [MiB]  Size [MiB]
 Host                                                133          40          73
 -------------------------------------------------------------------------------

 MEMORY| Estimated peak process memory [MiB]                                1687

 -------------------------------------------------------------------------------
 ----                             MULTIGRID INFO                            ----
 -------------------------------------------------------------------------------
 count for grid        1:       59337901          cutoff [a.u.]          250.00
 count for grid        2:        7588309          cutoff [a.u.]           83.33
 count for grid        3:        5881130          cutoff [a.u.]           27.78
 count for grid        4:        1762963          cutoff [a.u.]            9.26
 total gridlevel count  :       74570303

 -------------------------------------------------------------------------------
 -                                                                             -
 -                         MESSAGE PASSING PERFORMANCE                         -
 -                                                                             -
 -------------------------------------------------------------------------------

 ROUTINE             CALLS      AVE VOLUME [Bytes]
 MP_Group             3063
 MP_Bcast            10644                 198545.
 MP_Allreduce        36341                  21976.
 MP_Sync              3926
 MP_Alltoall          4372                6844131.
 MP_SendRecv         30178                  69520.
 MP_ISendRecv        60738                  47271.
 MP_Wait             91459
 MP_comm_split        1620
 MP_ISend            33095                 332442.
 MP_IRecv            35177                 313314.
 -------------------------------------------------------------------------------


 -------------------------------------------------------------------------------
 -                                                                             -
 -                           R E F E R E N C E S                               -
 -                                                                             -
 -------------------------------------------------------------------------------
 
 CP2K version 2025.2 (Development Version), the CP2K developers group (2025).
 CP2K is freely available from https://www.cp2k.org/ .
 
 M. Graml, K. Zollner, D. Hernangómez-Pérez, P. E. Faria Junior, J. Wilhelm.
 J. Chem. Theory Comput. 20, 2202-2208 (2024).
 Low-scaling GW algorithm applied to twisted transition-metal dichalcogenide 
 heterobilayers.
 https://doi.org/10.1021/acs.jctc.3c01230

 T. D. Kuehne, M. Iannuzzi, M. Del Ben, V. V. Rybkin, P. Seewald, F. Stein, T. 
 Laino, R. Z. Khaliullin, O. Schuett, F. Schiffmann, D. Golze, J. Wilhelm, S. 
 Chulkov, M. H. Bani-Hashemian, V. Weber, U. Borstnik, M. Taillefumier, A. S. 
 Jakobovits, A. Lazzaro, H. Pabst, T. Mueller, R. Schade, M. Guidon, S. 
 Andermatt, N. Holmberg, G. K. Schenter, A. Hehn, A. Bussy, F. Belleflamme, G. 
 Tabacchi, A. Gloess, M. Lass, I. Bethune, C. J. Mundy, C. Plessl, M. Watkins, 
 J. VandeVondele, M. Krack, J. Hutter.
 J. Chem. Phys. 152, 194103 (2020).
 CP2K: An electronic structure and molecular dynamics software package - 
 Quickstep: Efficient and accurate electronic structure calculations.
 https://doi.org/10.1063/5.0007045

 O. Schuett, P. Messmer, J. Hutter, J. VandeVondele.
 Electronic Structure Calculations on Graphics Processing Units, 173-190 (2016).
 GPU-Accelerated Sparse Matrix-Matrix Multiplication for Linear Scaling Density 
 Functional Theory.
 https://doi.org/10.1002/9781118670712.ch8

 A. Heinecke, G. Henry, M. Hutchinson, H. Pabst.
 Proceedings of Intl. Supercomputing Conference, 981-991 (2016).
 LIBXSMM: Accelerating Small Matrix Multiplications by Runtime Code Generation.
 https://doi.org/10.1109/SC.2016.83

 J. Hutter, M. Iannuzzi, F. Schiffmann, J. VandeVondele.
 WIREs Comput Mol Sci. 4, 15-25 (2014).
 CP2K: atomistic simulations of condensed matter systems.
 https://doi.org/10.1002/wcms.1159

 U. Borstnik, J. VandeVondele, V. Weber, J. Hutter.
 Parallel Comput. 40, 47-58 (2014).
 Sparse matrix multiplication: The distributed block-compressed sparse row 
 library.
 https://doi.org/10.1016/j.parco.2014.03.012

 A. Marek, V. Blum, R. Johanni, V. Havu, B. Lang, T. Auckenthaler, A. Heinecke, 
 H. Bungartz, H. Lederer.
 J. Phys. Condens. Matter 26, 213201 (2014).
 The ELPA library: scalable parallel eigenvalue solutions for electronic 
 structure theory and computational science.
 https://doi.org/10.1088/0953-8984/26/21/213201

 M. Guidon, J. Hutter, J. VandeVondele.
 J. Chem. Theory Comput. 5, 3010-3021 (2009).
 Robust Periodic Hartree-Fock Exchange for Large-Scale Simulations Using 
 Gaussian Basis Sets.
 https://doi.org/10.1021/ct900494g

 M. Guidon, F. Schiffmann, J. Hutter, J. VandeVondele.
 J. Chem. Phys. 128, 214104 (2008).
 Ab initio molecular dynamics using hybrid density functionals.
 https://doi.org/10.1063/1.2931945

 L. Genovese, T. Deutsch, S. Goedecker.
 J. Chem. Phys. 127, 054704 (2007).
 Efficient and accurate three-dimensional Poisson solver for surface problems.
 https://doi.org/10.1063/1.2754685

 J. VandeVondele, J. Hutter.
 J. Chem. Phys. 127, 114105 (2007).
 Gaussian basis sets for accurate calculations on molecular systems in gas and 
 condensed phases.
 https://doi.org/10.1063/1.2770708

 L. Genovese, T. Deutsch, A. Neelov, S. Goedecker, G. Beylkin.
 J. Chem. Phys. 125, 074105 (2006).
 Efficient solution of Poisson's equation with free boundary conditions.
 https://doi.org/10.1063/1.2335442

 M. Frigo, S. G. Johnson.
 Proc. IEEE 93, 216-231 (2005).
 The design and implementation of FFTW3.
 https://doi.org/10.1109/JPROC.2004.840301

 M. Krack, M. Parrinello.
 Phys. Chem. Chem. Phys. 2, 2105-2112 (2000).
 All-electron ab-initio molecular dynamics.
 https://doi.org/10.1039/b001167n

 G. Lippert, J. Hutter, M. Parrinello.
 Theor. Chem. Acc. 103, 124-140 (1999).
 The Gaussian and augmented-plane-wave density functional method for ab initio 
 molecular dynamics simulations.
 https://doi.org/10.1007/s002140050523

 J. P. Perdew, K. Burke, M. Ernzerhof.
 Phys. Rev. Lett. 77, 3865-3868 (1996).
 Generalized gradient approximation made simple.
 https://doi.org/10.1103/PhysRevLett.77.3865


 -------------------------------------------------------------------------------
 -                                                                             -
 -                                T I M I N G                                  -
 -                                                                             -
 -------------------------------------------------------------------------------
 SUBROUTINE                       CALLS  ASD         SELF TIME        TOTAL TIME
                                MAXIMUM       AVERAGE  MAXIMUM  AVERAGE  MAXIMUM
 CP2K                                 1  1.0    0.013    0.022  150.215  150.228
 qs_energies                          1  2.0    0.000    0.000  149.839  149.852
 scf_env_do_scf                       1  3.0    0.000    0.000  120.854  120.865
 scf_env_do_scf_inner_loop           78  4.0    0.001    0.003  120.854  120.864
 qs_ks_build_kohn_sham_matrix        79  7.0    0.011    0.013  102.158  102.187
 qs_ks_update_qs_env                 78  5.0    0.001    0.001  101.705  101.733
 rebuild_ks_matrix                   78  6.0    0.000    0.000  101.699  101.728
 hfx_ks_matrix                       79  8.0    0.001    0.001   47.935   47.952
 integrate_four_center               79  9.0    1.646    2.947   47.932   47.945
 integrate_four_center_main          79 10.0    0.136    0.535   27.977   34.436
 integrate_four_center_bin        14934 11.0   27.840   34.287   27.840   34.287
 fft_wrap_pw1pw2                   1650 10.0    0.017    0.021   27.157   27.824
 fft_wrap_pw1pw2_250               1176 11.1    0.456    0.547   25.749   26.534
 fft3d_ps                          1650 12.0    3.039    4.287   25.529   26.255
 qs_energies_properties               1  3.0    0.000    0.000   25.988   26.002
 post_scf_bandstructure               1  4.0    0.000    0.000   25.988   26.002
 gw                                   1  5.0    0.000    0.000   25.845   25.848
 gw_calc_large_cell_Gamma             1  6.0    0.000    0.000   24.492   24.506
 mp_alltoall_z22v                  1650 14.0   21.413   22.420   21.413   22.420
 pw_poisson_solve                    79  8.0    0.125    0.167   22.139   22.156
 mp_sync                           3926 12.1   13.939   18.071   13.939   18.071
 qs_rho_update_rho_low               79  5.0    0.001    0.001   14.397   14.402
 calculate_rho_elec                  79  6.0    0.053    0.078   13.762   13.764
 get_Sigma_c                          1  7.0    0.001    0.001   13.500   13.502
 dbt_total                          699  9.0    0.003    0.004   13.107   13.112
 qs_vxc_create                       79  8.0    0.001    0.002   12.692   12.875
 xc_vxc_pw_create                    78  9.0    0.080    0.118   12.691   12.874
 dbt_contract                       243  9.9    0.007    0.009   12.137   12.141
 dbt_tas_multiply                   486 12.4    0.001    0.001   12.018   12.020
 dbt_tas_total                      486 13.4    0.037    0.060   12.009   12.010
 x_to_yz                            705 12.9    0.351    0.552   11.397   11.785
 yz_to_x                            629 13.2    0.245    0.287   10.561   11.182
 xc_pw_derive                       468 11.0    0.002    0.003   10.135   10.296
 ps_wavelet_solve                    79  9.0    2.188    3.020    9.663    9.837
 density_rs2pw                       79  7.0    0.003    0.003    8.773    9.646
 calc_screening_functions             1 10.0    7.406    7.567    8.147    8.301
 contract_to_Sigma                   61  8.0    0.001    0.001    8.159    8.159
 get_mat_chi_Gamma_tau                1  7.0    0.000    0.001    7.950    7.964
 mp_alltoall_d11v                  2890 10.6    6.682    7.405    6.682    7.405
 mp_waitany                       26020 11.5    5.737    7.185    5.737    7.185
 compute_3c_integrals               152  8.6    0.002    0.003    7.129    7.130
 build_3c_integrals                 157  9.6    3.772    6.300    4.342    7.105
 sum_up_and_integrate                79  8.0    0.001    0.001    6.580    7.044
 integrate_v_rspace                  79  9.0    0.002    0.003    6.547    7.018
 xc_pw_divergence                    78 10.0    0.001    0.001    6.620    6.790
 potential_pw2rs                     79 10.0    0.006    0.007    6.213    6.240
 xc_rho_set_and_dset_create          78 10.0    0.085    0.108    5.791    6.142
 transfer_pw2rs                     396 10.6    0.003    0.004    5.454    5.892
 transfer_rs2pw                     396  8.4    0.006    0.011    5.008    5.861
 prepare_gapw_den                    79  8.0    0.001    0.002    5.679    5.785
 mp_alltoall_d54                     79 10.0    3.824    5.660    3.824    5.660
 mp_alltoall_d45                     80 10.0    4.936    5.532    4.936    5.532
 grid_collocate_task_list            79  7.0    4.768    5.292    4.768    5.292
 compute_3c_and_contract_W           31  8.0    0.000    0.000    4.452    4.453
 transfer_pw2rs_250                 159 11.0    0.753    0.918    3.172    4.120
 dbt_tas_dbm                        486 14.4    0.001    0.001    3.937    3.938
 integrate_vhg0_rspace               79  8.0    0.188    0.275    3.523    3.862
 gspace_mixing                       77  5.0    0.051    0.077    3.765    3.769
 transfer_rs2pw_250                 159 10.0    0.824    0.963    2.762    3.594
 dbm_multiply                       486 16.4    2.742    3.558    2.742    3.558
 put_rho0_on_grid                    79  9.0    0.057    0.090    3.359    3.465
 mp_sum_d                         10716  6.9    2.367    3.143    2.367    3.143
 dbt_tas_create_split              1618 15.2    0.003    0.004    2.971    3.022
 dbt_tas_create_split_rows_or_c    1618 16.2    0.004    0.005    2.967    3.019
 qs_scf_new_mos                      78  5.0    0.001    0.001    2.561    2.574
 mp_sum_dm                         3632  7.7    2.206    2.372    2.206    2.372
 mp_waitall_1                     74665 12.0    1.597    2.369    1.597    2.369
 G_times_3c                          60  8.0    0.000    0.007    2.335    2.342
 cp_fm_diag_elpa                     84  7.1    0.000    0.001    2.292    2.297
 eigensolver_symm                    78  6.0    0.006    0.007    2.257    2.277
 cp_fm_diag_elpa_base                84  8.1    2.244    2.272    2.276    2.276
 get_W_MIC                            1  7.0    0.000    0.000    2.242    2.242
 compute_W_MIC                        1  8.0    0.000    0.000    2.242    2.242
 dbt_tas_distribution_new          1774 14.6    0.778    0.880    2.060    2.137
 dbt_tas_estimate_result_nze        243 12.9    0.084    0.142    2.063    2.063
 broyden_mixing                      77  6.0    1.906    1.965    1.986    2.037
 compute_fm_W_MIC_freq_j             30  9.0    0.000    0.000    1.991    1.992
 init_scf_run                         1  3.0    0.000    0.000    1.864    1.864
 convert_to_new_pgrid              1458 14.4    0.705    1.194    1.378    1.770
 calculate_rho_atom                 395  9.0    0.530    1.759    0.530    1.759
 dbm_redistribute                   912 14.1    1.158    1.726    1.158    1.726
 transfer_pw2rs_90                   79 12.0    0.140    0.184    1.451    1.722
 dbt_tas_mm_2                       182 15.2    0.000    0.001    1.708    1.708
 mp_sum_dv                        18355  8.7    1.542    1.633    1.542    1.633
 mp_bcast_i                        2211 13.1    1.628    1.631    1.628    1.631
 scf_env_initial_rho_setup            1  4.0    0.000    0.000    1.615    1.627
 reshape_mm_small                   486 14.4    0.024    0.026    1.563    1.593
 reshape_mm_compatible              486 14.4    0.006    0.006    1.526    1.565
 transfer_rs2pw_90                   79  9.0    0.191    0.263    1.451    1.555
 change_split                       729 14.9    0.002    0.004    1.500    1.539
 powell_optimize                1420651 11.0    1.417    1.484    1.417    1.484
 pw_poisson_rebuild                  79  9.0    0.000    0.000    1.419    1.468
 ps_wavelet_create                    1 10.0    0.000    0.000    1.419    1.468
 RS_z_slice_distribution              1 11.0    0.103    0.113    1.419    1.467
 cp2k_distribution_to_z_slices       79  9.0    0.148    0.179    1.295    1.457
 cp_cfm_heevd                        32 10.8    0.000    0.000    1.440    1.451
 cp_cfm_heevd_base                   32 11.8    1.440    1.451    1.440    1.451
 cp_cfm_power                        30 10.0    0.000    0.000    1.420    1.426
 calc_pair_dist_radii                 1 10.0    0.710    0.752    1.386    1.425
 create_and_init_bs_env_for_gw        1  6.0    0.000    0.000    1.353    1.366
 abc_contract_xsmm               145584 10.6    0.372    1.277    0.372    1.277
 fft_wrap_pw1pw2_90                 158 10.5    0.015    0.021    0.959    1.260
 dbt_tas_mm_3N                       62 15.5    0.000    0.000    0.844    1.172
 fm_to_local_tensor                 152  8.0    0.001    0.002    1.129    1.134
 transfer_rs2pw_30                   79  9.0    0.313    0.355    0.666    1.099
 qs_energies_init_hamiltonians        1  3.0    0.000    0.000    1.091    1.091
 build_core_hamiltonian_matrix        1  4.0    0.000    0.000    1.070    1.070
 overlap_condnum                      1  5.0    0.000    0.000    1.066    1.070
 calculate_vxc_atom                  79  8.0    0.031    0.165    1.054    1.054
 mp_sum_l                          3100 13.7    0.722    1.021    0.722    1.021
 gaVxcgb_GC                         234  9.0    0.040    0.934    0.040    0.934
 transfer_pw2rs_30                   79 12.0    0.174    0.214    0.672    0.915
 mp_sendrecv_dv                   30178 10.0    0.422    0.867    0.422    0.867
 parallel_gemm_cfm                  285 10.4    0.000    0.000    0.806    0.833
 parallel_gemm_cfm_cosma            285 11.4    0.806    0.833    0.806    0.833
 xc_functional_eval                 546 10.9    0.001    0.001    0.479    0.823
 pbe_lda_eval                       546 11.9    0.478    0.823    0.478    0.823
 parallel_gemm_fm_cosma             340  8.3    0.782    0.820    0.782    0.820
 arnoldi_conjugate_gradient           7  6.0    0.011    0.013    0.813    0.813
 grid_integrate_task_list            79 10.0    0.081    0.777    0.081    0.777
 rs_grid_zero                       397 11.2    0.535    0.731    0.535    0.731
 rs_gather_matrices                  79 10.0    0.001    0.010    0.252    0.724
 mp_comm_split_direct              1620 17.2    0.683    0.685    0.684    0.685
 mp_waitall_2                      2978 15.9    0.486    0.682    0.486    0.682
 dbt_copy                           456 10.1    0.005    0.005    0.487    0.677
 dbt_create_matrix                  152  9.0    0.001    0.001    0.632    0.643
 calculate_rho_atom_coeff            79  6.0    0.060    0.113    0.634    0.639
 dbt_distribution_new_expert        316 10.5    0.002    0.002    0.609    0.610
 dbt_tas_reshape                    638 14.5    0.006    0.007    0.443    0.606
 copy_dbcsr_to_fm                   272  8.4    0.003    0.003    0.570    0.599
 calculate_rho0_atom                395  9.0    0.550    0.570    0.550    0.570
 pw_copy                           1180 10.6    0.485    0.568    0.485    0.568
 pw_derive                          705 11.3    0.495    0.555    0.495    0.555
 mp_comm_dup                       1379 17.6    0.493    0.545    0.494    0.546
 mp_isend_dm3                      3172 11.5    0.089    0.536    0.089    0.536
 setup_time_and_frequency_minim       1  7.0    0.000    0.000    0.519    0.531
 dbt_tas_communicate_buffer        1124 16.5    0.009    0.019    0.345    0.525
 compute_cfm_W_ikp_freq_j            30 10.0    0.000    0.001    0.508    0.516
 mp_bcast_dm                       2371  9.0    0.504    0.513    0.504    0.513
 dbt_tas_replicate                  486 14.4    0.032    0.046    0.393    0.505
 dbt_reshape                        274 10.9    0.115    0.162    0.368    0.504
 pw_gather_p                        787 11.8    0.413    0.500    0.413    0.500
 dbcsr_complete_redistribute        580  9.4    0.012    0.015    0.473    0.499
 dbcsr_sym_matrix_vector_mult      6013  7.0    0.027    0.029    0.439    0.481
 dbt_tas_mm_3T                      122 15.5    0.000    0.000    0.303    0.471
 dbt_tas_mm_1N                      120 15.5    0.000    0.000    0.298    0.468
 mp_max_i                          1037  6.6    0.278    0.467    0.278    0.467
 compute_V_xc                         1  7.0    0.000    0.000    0.461    0.464
 update_ks_atom                      79  8.0    0.040    0.077    0.421    0.451
 mp_irecv_dv                      36897 12.5    0.062    0.446    0.062    0.446
 mp_cart_create                    3341 14.6    0.416    0.443    0.418    0.444
 dbm_reserve_blocks                2921 15.9    0.259    0.435    0.259    0.435
 write_matrix                        91  8.0    0.000    0.000    0.379    0.433
 dbt_tas_reserve_blocks_index      2435 15.0    0.002    0.004    0.256    0.431
 compute_QP_energies                  1  7.0    0.000    0.000    0.417    0.418
 mp_alltoall_i                     1917 14.5    0.393    0.417    0.393    0.417
 pw_scatter_p                       863 12.1    0.358    0.405    0.358    0.405
 get_Sigma_x                          1  7.0    0.000    0.000    0.382    0.382
 compute_Sigma_x                      1  8.0    0.000    0.000    0.382    0.382
 dbt_tas_copy                       486 13.8    0.089    0.136    0.232    0.376
 mp_alltoall_z11v                   316 13.5    0.319    0.374    0.319    0.374
 integrate_four_center_getP          79 10.0    0.014    0.017    0.344    0.372
 fft_wrap_pw1pw2_30                 158 10.5    0.002    0.003    0.284    0.369
 pw_poisson_set                      80  9.0    0.001    0.002    0.333    0.350
 fm_write                           121  9.0    0.003    0.058    0.270    0.349
 mp_alltoall_i22                    858 10.4    0.310    0.348    0.310    0.348
 G_occ_vir                          121  8.0    0.001    0.002    0.315    0.342
 pw_integral_ab_c1d_c1d_gs           79  9.0    0.101    0.115    0.201    0.341
 mp_irecv_dm3                      3172 11.5    0.018    0.328    0.018    0.328
 to_ikp_and_mo                       62  8.0    0.001    0.002    0.315    0.315
 check_sparsity_3c                    1  7.0    0.000    0.008    0.314    0.314
 pw_copy_to_array                   787 11.8    0.235    0.310    0.235    0.310
 fm_Gamma_ao_to_cfm_ikp_mo           62  9.0    0.000    0.000    0.304    0.308
 integrate_four_center_load          79 10.0    0.000    0.000    0.187    0.307
 hfx_load_balance                     1 11.0    0.000    0.005    0.186    0.307
 cp_fm_write_unformatted            125  9.9    0.274    0.284    0.274    0.301
 dbt_tas_replicate_communicate_     304 15.5    0.001    0.003    0.187    0.298
 dbcsr_rep_row_to_rep_col_vec      6013  8.0    0.010    0.012    0.146    0.297
 mp_isend_dv                      39083 12.5    0.161    0.293    0.161    0.293
 hfx_load_balance_range               1 12.0    0.000    0.000    0.160    0.281
 dbt_communicate_buffer             274 11.9    0.002    0.003    0.183    0.279
 cp_fm_power                          3  8.7    0.001    0.001    0.253    0.256
 dbt_tas_reserve_blocks_templat     972 14.4    0.002    0.009    0.146    0.247
 mp_cart_sub                        562 10.4    0.239    0.239    0.239    0.239
 dbcsr_desymmetrize_deep            278  9.4    0.003    0.004    0.213    0.231
 Vh_1c_gg_integrals                  79  8.0    0.012    0.227    0.230    0.230
 pw_copy_from_array                 863 12.1    0.133    0.227    0.133    0.227
 pw_axpy                            785  9.3    0.177    0.214    0.177    0.214
 xz_to_yz                           158 11.0    0.005    0.011    0.173    0.201
 dbt_tas_merge                      182 14.2    0.021    0.033    0.159    0.200
 dbcsr_col_vec_to_rep_row          6013  8.0    0.013    0.015    0.131    0.197
 dbt_tas_reshape_alltoall           638 15.5    0.001    0.001    0.185    0.190
 yz_to_xz                           158 14.0    0.007    0.019    0.159    0.189
 multiply_fm_W_MIC_time_with_Mi       2  9.0    0.000    0.000    0.183    0.183
 integrate_four_center_dist_KS       79 10.0    0.014    0.018    0.182    0.183
 get_l_sq_wghts_cos_tf_t_to_w         1  8.0    0.176    0.182    0.176    0.182
 calculate_dm_sparse                 78  6.0    0.000    0.001    0.171    0.181
 cp_dbcsr_plus_fm_fm_t               78  7.0    0.001    0.001    0.171    0.181
 get_l_sq_wghts_sin_tf_t_to_w         1  8.0    0.174    0.180    0.174    0.180
 qs_init_subsys                       1  2.0    0.002    0.002    0.179    0.180
 get_l_sq_wghts_cos_tf_w_to_t         1  8.0    0.168    0.173    0.169    0.174
 transfer_pw2rs_10                   79 12.0    0.045    0.053    0.156    0.169
 qs_env_setup                         1  3.0    0.000    0.000    0.167    0.168
 qs_env_rebuild_pw_env                2  3.5    0.000    0.000    0.166    0.168
 pw_env_rebuild                       1  5.0    0.000    0.000    0.166    0.167
 fft_wrap_pw1pw2_10                 158 10.5    0.001    0.001    0.148    0.160
 dbt_reserve_blocks_index           825 12.3    0.001    0.001    0.093    0.158
 cp_cfm_geeig                         2  7.0    0.000    0.000    0.157    0.158
 dbt_tas_reshape_buffer_fill        638 15.5    0.087    0.156    0.087    0.156
 cp_fm_symm                          78  7.0    0.136    0.148    0.136    0.148
 create_qs_kind_set                   1  2.0    0.000    0.000    0.148    0.148
 read_qs_kind                         5  3.0    0.047    0.073    0.147    0.148
 pw_zero                            470 10.3    0.126    0.144    0.126    0.144
 dbt_tas_replicate_alltoall         304 15.5    0.000    0.000    0.120    0.144
 mp_rank_compare                   1650 13.0    0.134    0.142    0.134    0.142
 copy_fm_to_dbcsr                   308  8.5    0.001    0.001    0.121    0.136
 fill_fm_Sigma_c_Gamma_time           1  8.0    0.000    0.000    0.136    0.136
 transfer_rs2pw_10                   79  9.0    0.054    0.062    0.123    0.133
 dbt_tas_merge_communicate_buff     182 15.2    0.001    0.002    0.099    0.132
 dbcsr_add_d                       9974  7.4    0.003    0.003    0.027    0.132
 dbt_tas_reshape_buffer_obtain      638 15.5    0.070    0.093    0.097    0.129
 dbt_tas_reshape_communicate_bu     638 15.5    0.004    0.006    0.065    0.129
 dbcsr_add_anytype                 9974  8.4    0.004    0.017    0.024    0.129
 pw_grid_setup                        4  6.0    0.000    0.000    0.127    0.128
 pw_grid_setup_internal               4  7.0    0.001    0.001    0.127    0.128
 dbcsr_multiply_generic              78  8.0    0.002    0.003    0.116    0.122
 dbt_create_new                     158 10.0    0.001    0.001    0.108    0.117
 parser_read_line                 48619  4.0    0.004    0.005    0.100    0.102
 dos_pdos_ldos                        1  5.0    0.000    0.000    0.087    0.099
 parser_read_line_low                64  5.0    0.001    0.022    0.096    0.098
 broadcast_input_information         64  6.0    0.005    0.006    0.095    0.097
 dbt_reserve_blocks_index_array     516 12.0    0.001    0.001    0.049    0.091
 dbt_pgrid_create_expert            320 11.5    0.001    0.001    0.088    0.090
 cp_cfm_cholesky_invert              31 11.0    0.082    0.088    0.082    0.088
 build_3c_integrals_put_dbcsr      2700 10.6    0.022    0.086    0.022    0.086
 dbcsr_finalize                   12760 11.1    0.006    0.027    0.024    0.085
 dbm_add                            486 14.4    0.052    0.080    0.052    0.080
 alloc_block_3c                     157 10.6    0.003    0.004    0.049    0.078
 cp_cfm_cholesky_decompose           35 10.7    0.067    0.069    0.067    0.069
 mp_bcast_dv                       6013  9.0    0.045    0.067    0.045    0.067
 compute_fm_chi_Gamma_freq           30 10.0    0.000    0.000    0.062    0.066
 mp_sum_i                           648 14.2    0.061    0.066    0.061    0.066
 mp_bcast_i_src                     256  7.0    0.058    0.062    0.058    0.062
 cube_transpose_2                   158 11.0    0.002    0.003    0.032    0.060
 dbt_tas_mp_comm                    243 12.9    0.002    0.002    0.058    0.060
 dbcsr_copy                       24730  7.5    0.021    0.041    0.038    0.058
 rs_scatter_matrices                 79  7.0    0.001    0.009    0.016    0.058
 dbt_crop                           212 11.0    0.018    0.027    0.034    0.056
 create_and_init_bs_env               1  5.0    0.000    0.000    0.056    0.056
 global_matrix_to_local_matrix      152  9.0    0.001    0.001    0.047    0.056
 cp_fm_uplo_to_full                  87  9.1    0.028    0.051    0.028    0.051
 diagonalize_ks_matrix                1  6.0    0.000    0.000    0.049    0.049
 cp_fm_geeig_canon                    1  7.0    0.000    0.000    0.049    0.049
 pw_grid_remap                        4  8.0    0.001    0.001    0.046    0.047
 make_m2s                           156  9.0    0.002    0.002    0.045    0.046
 mp_alltoall_i11v                  2018 10.4    0.019    0.046    0.019    0.046
 mp_isendrecv_dv                  60356 12.0    0.024    0.046    0.024    0.046
 dbcsr_create_new                 27820  8.7    0.018    0.040    0.024    0.046
 mp_sum_im3                           6  9.5    0.045    0.046    0.045    0.046
 dbt_tas_create_new                2345 14.5    0.013    0.045    0.013    0.045
 multiply_cannon                     78  9.0    0.005    0.005    0.040    0.045
 dbcsr_iterator_start             75945  8.9    0.025    0.036    0.031    0.045
 vxc_of_r_new                       468  9.0    0.000    0.007    0.001    0.045
 mp_comm_free                      6957 13.6    0.039    0.043    0.039    0.043
 scale_and_distribute               158 10.0    0.032    0.042    0.032    0.042
 dbt_nd_mp_comm                     152 10.0    0.000    0.000    0.040    0.042
 scf_post_calculation_gpw             1  3.0    0.000    0.000    0.041    0.041
 write_available_results              1  4.0    0.000    0.000    0.041    0.041
 write_mo_free_results                1  5.0    0.001    0.002    0.041    0.041
 dbt_tas_merge_alltoall             182 15.2    0.000    0.000    0.035    0.041
 dbcsr_merge_all                  11188 12.1    0.010    0.034    0.013    0.041
 send_sizes_1                       152 10.0    0.000    0.000    0.036    0.040
 mp_bcast_b_src                     162  7.6    0.011    0.038    0.011    0.038
 cube_transpose_1                   158 14.0    0.002    0.002    0.022    0.036
 create_tensors                       1  7.0    0.000    0.000    0.031    0.035
 make_images                        156 10.0    0.002    0.003    0.033    0.034
 pw_grid_sort                         4  8.0    0.021    0.021    0.029    0.031
 multiply_cannon_loop                78 10.0    0.003    0.003    0.026    0.031
 local_dbt_to_global_mat             91  8.0    0.000    0.000    0.024    0.031
 compute_max_radius                   1  6.0    0.029    0.031    0.029    0.031
 mp_sum_im                           11  8.0    0.030    0.031    0.030    0.031
 mp_bcast_am_src                     64  7.0    0.026    0.028    0.029    0.031
 create_3c_t                          3  8.0    0.000    0.000    0.026    0.029
 compute_MinvVsqrt_Vsqrt              1  9.0    0.000    0.000    0.027    0.029
 dbcsr_iterator_stop              75945  8.9    0.018    0.024    0.022    0.028
 offload_free_buffer                 87  8.5    0.001    0.028    0.001    0.028
 dbt_copy_nocomm                     30 10.0    0.007    0.011    0.017    0.028
 make_images_sizes                  156 11.0    0.000    0.000    0.024    0.027
 mp_alltoall_i44                    156 12.0    0.024    0.027    0.024    0.027
 cp_cfm_uplo_to_full                 31 11.0    0.000    0.000    0.007    0.027
 cp_cfm_transpose                    31 12.0    0.007    0.027    0.007    0.027
 check_for_restart_files              1  7.0    0.024    0.025    0.024    0.025
 hybrid_alltoall_any                434 11.0    0.002    0.002    0.014    0.025
 create_col_vec_from_matrix           7  7.0    0.000    0.000    0.000    0.022
 local_matrix_to_global_matrix       91  9.0    0.000    0.000    0.015    0.022
 cp_cfm_triangular_multiply           6  8.0    0.020    0.022    0.020    0.022
 mp_recv_dv                        3310 10.9    0.000    0.021    0.000    0.021
 hirshfeld_integration                1  6.0    0.001    0.005    0.021    0.021
 pw_scale                           313  9.5    0.017    0.021    0.017    0.021
 dbcsr_dot                          157  8.0    0.001    0.002    0.009    0.021
 qs_env_update_s_mstruct              1  4.0    0.000    0.000    0.014    0.021
 mp_isend_lm2                     11533 16.7    0.006    0.021    0.006    0.021
 mp_max_d                            85  7.0    0.016    0.021    0.016    0.021
 qs_create_task_list                  1  5.0    0.000    0.000    0.014    0.021
 generate_qs_task_list                1  6.0    0.000    0.000    0.014    0.021
 distribute_tasks                     1  7.0    0.000    0.000    0.014    0.021
 cp_fm_redistribute_start            84  8.1    0.000    0.000    0.016    0.020
 dbcsr_scale_anytype               9975  9.4    0.004    0.005    0.010    0.020
 create_2c_t                          1  8.0    0.000    0.000    0.015    0.020
 create_fast_col_vec_access       12026  8.0    0.011    0.012    0.019    0.020
 create_fast_row_vec_access       12026  8.0    0.011    0.012    0.018    0.020
 RI_2c_integral_mat                   4  9.8    0.000    0.000    0.019    0.020
 mp_sum_iv                           31  7.5    0.018    0.019    0.018    0.019
 multiply_cannon_metrocomm3        1872 11.0    0.002    0.002    0.011    0.018
 calculate_first_density_matrix       1  5.0    0.000    0.000    0.007    0.018
 calculate_atomic_block_dm            1  6.0    0.001    0.001    0.007    0.018
 compute_proj_mo_on_kind              1  6.0    0.000    0.000    0.018    0.018
 pw_grid_distribute                   4  8.0    0.004    0.004    0.018    0.018
 dbcsr_work_create                11778 11.1    0.003    0.012    0.004    0.018
 dbcsr_sym_matrix_vector_mult_l    6013  8.0    0.006    0.013    0.011    0.018
 calculate_hirshfeld_normalizat       1  6.0    0.001    0.005    0.017    0.017
 create_2c_tensor                     3  9.0    0.000    0.000    0.013    0.017
 dbt_reserve_blocks_template         30 11.0    0.000    0.000    0.010    0.017
 mp_maxloc_dv                      1629  1.0    0.017    0.017    0.017    0.017
 rs_grid_create                      85  8.8    0.000    0.001    0.001    0.017
 dbcsr_work_destroy_all           11778 12.0    0.003    0.012    0.003    0.016
 offload_create_buffer               87  9.8    0.000    0.016    0.000    0.016
 dbm_filter                         982 13.5    0.002    0.016    0.002    0.016
 -------------------------------------------------------------------------------

 The number of warnings for this run is : 1
 
 -------------------------------------------------------------------------------
  **** **** ******  **  PROGRAM ENDED AT                 2025-10-25 06:46:34.552
 ***** ** ***  *** **   PROGRAM RAN ON                                    cn1302
 **    ****   ******    PROGRAM RAN BY                                  metdyn02
 ***** **    ** ** **   PROGRAM PROCESS ID                               2208548
  **** **  *******  **  PROGRAM STOPPED IN /scratch/hpc-prf-metdyn/metdyn02_Remi
                                           /04_mol/Benchmark_mol_low_scal/aUKBqs
                                           EOTmq69kFe5R_nOg/5k_set_final_qzvp/KA
                                           DZOE/DZVP/1e-2/9.0
