&GLOBAL
  PROJECT  MoS2
  PRINT_LEVEL MEDIUM
  RUN_TYPE ENERGY
  &TIMINGS
     THRESHOLD 0.0001
  &END
  TRACE
  TRACE_MASTER
  TRACE_ROUTINES compute_chi dbt_create_2c_R dbt_create_3c_R1_R2 dbt_create G_occ_vir contract_M_occ_vir_to_chi local_dbt_to_global_fm
&END GLOBAL
&FORCE_EVAL
  METHOD Quickstep
   &DFT
    BASIS_SET_FILE_NAME /scratch/hpc-prf-metdyn/metdyn02_Remi/BASIS_AUG_MOLOPT/BASIS_ALL_MOLOPT_AUG_for_excited_states
    BASIS_SET_FILE_NAME /scratch/hpc-prf-metdyn/metdyn02_Remi/BASIS_AUG_MOLOPT/BASIS_ALL_MOLOPT_AUG_for_excited_states_RI
    BASIS_SET_FILE_NAME /scratch/hpc-prf-metdyn/metdyn02_Remi/BASIS_AUG_MOLOPT/aug-cc-pVZ
    BASIS_SET_FILE_NAME /scratch/hpc-prf-metdyn/metdyn02_Remi/BASIS_AUG_MOLOPT/aug-cc-pVZ-TOTRI
    SORT_BASIS EXP
    POTENTIAL_FILE_NAME  /pc2/groups/hpc-prf-metdyn/metdyn02_Remi/cp2k/cp2k/data/ALL_POTENTIALS 
    CHARGE 0
    &MGRID
      CUTOFF  500
      REL_CUTOFF  100
    &END MGRID
    &POISSON
      PERIODIC NONE
      POISSON_SOLVER WAVELET
    &END POISSON
    &QS
      METHOD GAPW
      EPS_DEFAULT 1.0E-12
      EPS_PGF_ORB 1.0E-12
    &END QS
    &SCF
      SCF_GUESS ATOMIC
      EPS_SCF 1.0E-6
      MAX_SCF 500
      &PRINT
        &RESTART ON
        &END
      &END
      ADDED_MOS -1
      &MIXING
          METHOD BROYDEN_MIXING
          ALPHA 0.1
          BETA 1.5
          NBROYDEN 8
      &END
      CHOLESKY OFF
    &END SCF
    &XC
      &XC_FUNCTIONAL PBE0
      &END XC_FUNCTIONAL
      &HF
         &MEMORY
          MAX_MEMORY 64000
         &END MEMORY
      &END HF
    &END XC
    &PRINT
    &OVERLAP_CONDITION ON
    DIAGONALIZATION T
    &END OVERLAP_CONDITION
    &END PRINT
  &END DFT
  &PROPERTIES
    &BANDSTRUCTURE
      &GW
        NUM_TIME_FREQ_POINTS         30
        MEMORY_PER_PROC              64
        EPS_FILTER              1.0E-11
        REGULARIZATION_RI        1.0E-2
CUTOFF_RADIUS_RI            9.0
      &END
    &END
  &END PROPERTIES

    &SUBSYS
    &CELL
      ABC                 30 30 30
      ALPHA_BETA_GAMMA    90 90 90
      PERIODIC NONE
    &END CELL

     &KIND C
      BASIS_SET ORB aug-SZV-MOLOPT-ae
      BASIS_SET RI_AUX RI_aug-SZV-MOLOPT-ae_N_RI_048_s_p_d_f_g_h_i_6_3_2_2_1_0_0_error_8.4e-05
      POTENTIAL ALL
     &END KIND

     &KIND H
      BASIS_SET ORB aug-SZV-MOLOPT-ae
      BASIS_SET RI_AUX RI_aug-SZV-MOLOPT-ae_N_RI_010_s_p_d_f_g_h_i_4_2_0_0_0_0_0_error_2.4e-06
      POTENTIAL ALL
     &END KIND

     &KIND N
      BASIS_SET ORB aug-SZV-MOLOPT-ae
      BASIS_SET RI_AUX RI_aug-SZV-MOLOPT-ae_N_RI_051_s_p_d_f_g_h_i_7_5_3_2_0_0_0_error_1.0e-06
      POTENTIAL ALL
     &END KIND

     &KIND O
      BASIS_SET ORB aug-SZV-MOLOPT-ae
      BASIS_SET RI_AUX RI_aug-SZV-MOLOPT-ae_N_RI_059_s_p_d_f_g_h_i_7_6_4_2_0_0_0_error_7.1e-06
      POTENTIAL ALL
     &END KIND

    




    &TOPOLOGY
     &CENTER_COORDINATES T
     &END CENTER_COORDINATES
    &END TOPOLOGY


    &COORD
     C 8.81031892 10.79191230 17.31122633
     H 8.46443459 11.63448280 16.69829751
     H 8.01808866 10.53483833 18.02731353
     H 8.98909224 9.92824614 16.66130870
     C 10.10344682 11.15796206 18.05017759
     H 9.14443639 12.21177664 19.63057618
     H 10.42548261 10.28618182 18.64483839
     N 9.89694836 12.28829983 18.94940474
     C 10.50456723 13.50332275 18.94576383
     O 10.18754363 14.40362493 19.71894894
     C 11.23221961 11.37787725 17.04360618
     O 11.54924323 10.47757505 16.27042111
     C 11.63334003 13.72323793 17.93919243
     H 12.59235048 12.66942333 16.35879386
     H 11.31130424 14.59501816 17.34453163
     N 11.83983850 12.59290015 17.03996529
     C 12.92646792 14.08928771 18.67814369
     H 13.27235226 13.24671722 19.29107252
     H 13.71869818 14.34636168 17.96205649
     H 12.74769459 14.95295387 19.32806132
&END COORD
  &END SUBSYS
&END FORCE_EVAL
