&GLOBAL
  PROJECT  MoS2
  PRINT_LEVEL MEDIUM
  RUN_TYPE ENERGY
  &TIMINGS
     THRESHOLD 0.0001
  &END
  TRACE
  TRACE_MASTER
  TRACE_ROUTINES compute_chi dbt_create_2c_R dbt_create_3c_R1_R2 dbt_create G_occ_vir contract_M_occ_vir_to_chi local_dbt_to_global_fm
&END GLOBAL
&FORCE_EVAL
  METHOD Quickstep
  &PROPERTIES
  &TDDFPT                          ! input section for TDDFPT
       KERNEL FULL                       ! specification of the underlying kernel matrix K
                                         ! FULL kernel is for GGA and hybrid functional computations
                                         ! sTDA kernel is referring to a semi-empirical sTDA computation
       NSTATES 20                      ! specifies the number of excited states to be computed
       MAX_ITER   100                  ! number of iterations for the Davidson algorithm
       CONVERGENCE [eV] 1.0e-6         ! convergence threshold in eV
       &XC                            ! If choosing kernel FULL, the underlying functional can be
        &XC_FUNCTIONAL PBE0             ! specified by adding an XC section
        &END XC_FUNCTIONAL              ! The functional can be chosen independently from the chosen
  	 &HF
          &MEMORY 
            MAX_MEMORY 8000
  	   &END MEMORY
  	 &END HF
       &END XC                        ! GS functional except when choosing ADMM 
    &END TDDFPT
    &END PROPERTIES
  &DFT
    BASIS_SET_FILE_NAME /hppfs/scratch/04/di38fab/04_TMD/BASIS_AUG_MOLOPT/BASIS_ALL_MOLOPT_AUG_for_excited_states
    BASIS_SET_FILE_NAME /hppfs/scratch/04/di38fab/04_TMD/BASIS_AUG_MOLOPT/BASIS_ALL_MOLOPT_AUG_for_excited_states_RI
    BASIS_SET_FILE_NAME /hppfs/scratch/04/di38fab/04_TMD/BASIS_AUG_MOLOPT/aug-cc-pVZ
    BASIS_SET_FILE_NAME /hppfs/scratch/04/di38fab/04_TMD/BASIS_AUG_MOLOPT/aug-cc-pVZ-TOTRI
    BASIS_SET_FILE_NAME /hppfs/scratch/04/di38fab/04_TMD/BASIS_AUG_MOLOPT/cc-pVZ
    BASIS_SET_FILE_NAME /hppfs/scratch/04/di38fab/04_TMD/BASIS_AUG_MOLOPT/cc-pVZ-RI
    BASIS_SET_FILE_NAME /hppfs/scratch/04/di38fab/04_TMD/BASIS_AUG_MOLOPT/BASIS_MOLOPT_UZH
    SORT_BASIS EXP
    POTENTIAL_FILE_NAME  /hppfs/work/pn36zo/di38fab/cp2k/data/ALL_POTENTIALS 
    CHARGE 0
    &MGRID
      CUTOFF  500
      REL_CUTOFF  100
    &END MGRID
    &POISSON
      PERIODIC NONE
      POISSON_SOLVER WAVELET
    &END POISSON
    &QS
      METHOD GAPW
      EPS_DEFAULT 1.0E-12
      EPS_PGF_ORB 1.0E-12
    &END QS
    &SCF
      SCF_GUESS ATOMIC
      EPS_SCF 1.0E-6
      MAX_SCF 500
      &PRINT
        &RESTART ON
        &END
      &END
      ADDED_MOS -1
      &MIXING
          METHOD BROYDEN_MIXING
          ALPHA 0.1
          BETA 1.5
          NBROYDEN 8
      &END
      CHOLESKY OFF
    &END SCF
    &XC
      &XC_FUNCTIONAL PBE0
      &END XC_FUNCTIONAL
      &HF
         &MEMORY
          MAX_MEMORY 8000
         &END MEMORY
      &END HF
!      &WF_CORRELATION
!      	&RI_RPA
!	  QUADRATURE_POINTS 100
!      	  &GW
!	    CORR_MOS_OCC -1
!	    CORR_MOS_VIRT -1
!	    &BSE
!              BSE_DIAG_METHOD FULLDIAG
!              TDA OFF
!            &END BSE 
!          &END GW	
!        &END RI_RPA
!      &END WF_CORRELATION
    &END XC
    &PRINT
    &OVERLAP_CONDITION ON
    DIAGONALIZATION T
    &END OVERLAP_CONDITION
    &END PRINT
  &END DFT
    &SUBSYS
    &CELL
      ABC                 30 30 30
      ALPHA_BETA_GAMMA    90 90 90
      PERIODIC NONE
    &END CELL

     &KIND N
      BASIS_SET ORB SVP-MOLOPT-GGA-ae
      BASIS_SET RI_AUX aug-cc-pV5Z-OPTRI
      POTENTIAL ALL
     &END KIND

     &KIND C
      BASIS_SET ORB SVP-MOLOPT-GGA-ae
      BASIS_SET RI_AUX aug-cc-pV5Z-OPTRI
      POTENTIAL ALL
     &END KIND

     &KIND Cl
      BASIS_SET ORB SVP-MOLOPT-GGA-ae
      BASIS_SET RI_AUX aug-cc-pV5Z-OPTRI
      POTENTIAL ALL
     &END KIND

     &KIND H
      BASIS_SET ORB SVP-MOLOPT-GGA-ae
      BASIS_SET RI_AUX aug-cc-pV5Z-OPTRI
      POTENTIAL ALL
     &END KIND

     &KIND O
      BASIS_SET ORB SVP-MOLOPT-GGA-ae
      BASIS_SET RI_AUX aug-cc-pV5Z-OPTRI
      POTENTIAL ALL
     &END KIND

    




    &TOPOLOGY
     &CENTER_COORDINATES T
     &END CENTER_COORDINATES
    &END TOPOLOGY


    &COORD
     N 41.47566794 27.72956677 32.52533010
     C 41.45658336 29.02407017 32.22945621
     Cl 41.16418524 29.41522797 30.56077640
     H 41.00627561 33.36055207 36.22403334
     H 41.12048458 32.40097167 34.01658136
     C 41.70248690 27.46621671 33.81231684
     C 41.90498601 28.42972422 34.79194707
     Cl 41.73991559 25.79141681 34.25946948
     H 42.09288047 28.18578424 35.83098747
     N 42.02196164 30.85783488 35.15565723
     C 42.39352781 30.83203368 36.50890354
     O 42.49642564 32.11952035 36.94838064
     C 42.01363439 33.03014622 35.93387939
     C 42.00809020 32.22218586 34.63190109
     O 42.60735224 29.87155942 37.20607561
     C 41.85612295 29.75639760 34.33219475
     N 41.63151702 30.05916005 33.03879609
     H 42.68596502 33.89337912 35.90603273
     H 42.89623904 32.40442247 34.00938163
&END COORD
  &END SUBSYS
&END FORCE_EVAL
