SIRIUS 7.7.0, git hash: https://api.github.com/repos/electronic-structure/SIRIUS/git/ref/tags/v7.7.0
 DBCSR| CPU Multiplication driver                                           BLAS (U)
 DBCSR| Multrec recursion limit                                              512 (U)
 DBCSR| Multiplication stack size                                           1000 (D)
 DBCSR| Maximum elements for images                                    UNLIMITED (U)
 DBCSR| Multiplicative factor virtual images                                   1 (U)
 DBCSR| Use multiplication densification                                       T (D)
 DBCSR| Multiplication size stacks                                             3 (U)
 DBCSR| Use memory pool for CPU allocation                                     F (U)
 DBCSR| Number of 3D layers                                               SINGLE (U)
 DBCSR| Use MPI memory allocation                                              F (U)
 DBCSR| Use RMA algorithm                                                      F (U)
 DBCSR| Use Communication thread                                               T (U)
 DBCSR| Communication thread load                                             75 (D)
 DBCSR| MPI: My process id                                                     0
 DBCSR| MPI: Number of processes                                             192
 DBCSR| OMP: Current number of threads                                         4
 DBCSR| OMP: Max number of threads                                             4
 DBCSR| Split modifier for TAS multiplication algorithm                  1.0E+00 (U)


  **** **** ******  **  PROGRAM STARTED AT               2025-10-25 08:16:58.247
 ***** ** ***  *** **   PROGRAM STARTED ON                                cn0405
 **    ****   ******    PROGRAM STARTED BY                              metdyn02
 ***** **    ** ** **   PROGRAM PROCESS ID                               1628038
  **** **  *******  **  PROGRAM STARTED IN /scratch/hpc-prf-metdyn/metdyn02_Remi
                                           /04_mol/Benchmark_mol_low_scal/aUKBqs
                                           EOTmq69kFe5R_nOg/5k_set_final_qzvp/WA
                                           FYIL/DZVP/1e-4/9.0

 CP2K| version string:                 CP2K version 2025.2 (Development Version)
 CP2K| source code revision number:                                  git:2a4e9c4
 CP2K| cp2kflags: omp libint fftw3 libxc libgrpp elpa parallel scalapack mpi_f08
 CP2K|             cosma xsmm plumed2 spglib sirius libvori libbqb libvdwxc hdf5
 CP2K| is freely available from                            https://www.cp2k.org/
 CP2K| Program compiled at                      Fri Oct 24 04:52:17 PM CEST 2025
 CP2K| Program compiled on                                                login1
 CP2K| Program compiled for                                                local
 CP2K| Data directory path    /opt/software/pc2/EB-SW/software/CP2K/2025.2-foss-
 CP2K| Input file name                                                    GW.inp

 GLOBAL| Force Environment number                                              1
 GLOBAL| Basis set file name            /pc2/groups/hpc-prf-metdyn/metdyn02_Remi
 GLOBAL| Potential file name            /pc2/groups/hpc-prf-metdyn/metdyn02_Remi
 GLOBAL| MM Potential file name                                     MM_POTENTIAL
 GLOBAL| Coordinate file name                                      __STD_INPUT__
 GLOBAL| Method name                                                        CP2K
 GLOBAL| Project name                                                       MoS2
 GLOBAL| Run type                                                         ENERGY
 GLOBAL| FFT library                                                       FFTW3
 GLOBAL| Diagonalization library                                            ELPA
 GLOBAL| Cholesky decomposition library                                ScaLAPACK
 GLOBAL| DGEMM library                                                      BLAS
 GLOBAL| Minimum number of eigenvectors for ELPA usage                        16
 GLOBAL| Orthonormality check for eigenvectors                          DISABLED
 GLOBAL| Matrix multiplication library                                     COSMA
 GLOBAL| All-to-all communication in single precision                          F
 GLOBAL| FFTs using library dependent lengths                                  F
 GLOBAL| Grid backend                                                       AUTO
 GLOBAL| Global print level                                               MEDIUM
 GLOBAL| MPI I/O enabled                                                       T
 GLOBAL| Total number of message passing processes                           192
 GLOBAL| Number of distributed systems (nodes)                                 4
 GLOBAL| Number of threads for this process                                    4
 GLOBAL| This output is from process                                           0
 GLOBAL| OpenMP stack size per thread (OMP_STACKSIZE)                    default
 GLOBAL| CPU model name                          AMD EPYC 9655 96-Core Processor
 GLOBAL| CPUID                                                              1003

 MEMORY| system memory details [Kb]
 MEMORY|                        rank 0           min           max       average
 MEMORY| MemTotal            791039072     791039048     791039096     791039074
 MEMORY| MemFree             751725840     751725840     752195572     752019351
 MEMORY| Buffers                  3164          3164          3164          3164
 MEMORY| Cached                7641236       7601304       7641236       7616403
 MEMORY| Slab                  2030828       1963368       2030828       1993463
 MEMORY| SReclaimable           891560        835252        891560        856553
 MEMORY| MemLikelyFree       760261800     760261800     760635292     760495471


 *** Fundamental physical constants (SI units) ***

 *** Literature: B. J. Mohr and B. N. Taylor,
 ***             CODATA recommended values of the fundamental physical
 ***             constants: 2006, Web Version 5.1
 ***             http://physics.nist.gov/constants

 Speed of light in vacuum [m/s]                             2.99792458000000E+08
 Magnetic constant or permeability of vacuum [N/A**2]       1.25663706143592E-06
 Electric constant or permittivity of vacuum [F/m]          8.85418781762039E-12
 Planck constant (h) [J*s]                                  6.62606896000000E-34
 Planck constant (h-bar) [J*s]                              1.05457162825177E-34
 Elementary charge [C]                                      1.60217648700000E-19
 Electron mass [kg]                                         9.10938215000000E-31
 Electron g factor [ ]                                     -2.00231930436220E+00
 Proton mass [kg]                                           1.67262163700000E-27
 Fine-structure constant                                    7.29735253760000E-03
 Rydberg constant [1/m]                                     1.09737315685270E+07
 Avogadro constant [1/mol]                                  6.02214179000000E+23
 Boltzmann constant [J/K]                                   1.38065040000000E-23
 Atomic mass unit [kg]                                      1.66053878200000E-27
 Bohr radius [m]                                            5.29177208590000E-11

 *** Conversion factors ***

 [u] -> [a.u.]                                              1.82288848426455E+03
 [Angstrom] -> [Bohr] = [a.u.]                              1.88972613288564E+00
 [a.u.] = [Bohr] -> [Angstrom]                              5.29177208590000E-01
 [a.u.] -> [s]                                              2.41888432650478E-17
 [a.u.] -> [fs]                                             2.41888432650478E-02
 [a.u.] -> [J]                                              4.35974393937059E-18
 [a.u.] -> [N]                                              8.23872205491840E-08
 [a.u.] -> [K]                                              3.15774647902944E+05
 [a.u.] -> [kJ/mol]                                         2.62549961709828E+03
 [a.u.] -> [kcal/mol]                                       6.27509468713739E+02
 [a.u.] -> [Pa]                                             2.94210107994716E+13
 [a.u.] -> [bar]                                            2.94210107994716E+08
 [a.u.] -> [atm]                                            2.90362800883016E+08
 [a.u.] -> [eV]                                             2.72113838565563E+01
 [a.u.] -> [Hz]                                             6.57968392072181E+15
 [a.u.] -> [1/cm] (wave numbers)                            2.19474631370540E+05
 [a.u./Bohr**2] -> [1/cm]                                   5.14048714338585E+03
 

 CELL_TOP| Volume [angstrom^3]:                                     27000.000000
 CELL_TOP| Vector a [angstrom    30.000     0.000     0.000   |a| =    30.000000
 CELL_TOP| Vector b [angstrom     0.000    30.000     0.000   |b| =    30.000000
 CELL_TOP| Vector c [angstrom     0.000     0.000    30.000   |c| =    30.000000
 CELL_TOP| Angle (b,c), alpha [degree]:                                90.000000
 CELL_TOP| Angle (a,c), beta  [degree]:                                90.000000
 CELL_TOP| Angle (a,b), gamma [degree]:                                90.000000
 CELL_TOP| Numerically orthorhombic:                                         YES
 CELL_TOP| Periodicity                                                      NONE

 GENERATE|  Preliminary Number of Bonds generated:                             0
 GENERATE|  Achieved consistency in connectivity generation.

 CELL| Volume [angstrom^3]:                                         27000.000000
 CELL| Vector a [angstrom]:      30.000     0.000     0.000   |a| =    30.000000
 CELL| Vector b [angstrom]:       0.000    30.000     0.000   |b| =    30.000000
 CELL| Vector c [angstrom]:       0.000     0.000    30.000   |c| =    30.000000
 CELL| Angle (b,c), alpha [degree]:                                    90.000000
 CELL| Angle (a,c), beta  [degree]:                                    90.000000
 CELL| Angle (a,b), gamma [degree]:                                    90.000000
 CELL| Numerically orthorhombic:                                             YES
 CELL| Periodicity                                                          NONE

 CELL_REF| Volume [angstrom^3]:                                     27000.000000
 CELL_REF| Vector a [angstrom    30.000     0.000     0.000   |a| =    30.000000
 CELL_REF| Vector b [angstrom     0.000    30.000     0.000   |b| =    30.000000
 CELL_REF| Vector c [angstrom     0.000     0.000    30.000   |c| =    30.000000
 CELL_REF| Angle (b,c), alpha [degree]:                                90.000000
 CELL_REF| Angle (a,c), beta  [degree]:                                90.000000
 CELL_REF| Angle (a,b), gamma [degree]:                                90.000000
 CELL_REF| Numerically orthorhombic:                                         YES
 CELL_REF| Periodicity                                                      NONE

 *******************************************************************************
 *******************************************************************************
 **                                                                           **
 **     #####                         ##              ##                      **
 **    ##   ##            ##          ##              ##                      **
 **   ##     ##                       ##            ######                    **
 **   ##     ##  ##   ##  ##   #####  ##  ##   ####   ##    #####    #####    **
 **   ##     ##  ##   ##  ##  ##      ## ##   ##      ##   ##   ##  ##   ##   **
 **   ##  ## ##  ##   ##  ##  ##      ####     ###    ##   ######   ######    **
 **    ##  ###   ##   ##  ##  ##      ## ##      ##   ##   ##       ##        **
 **     #######   #####   ##   #####  ##  ##  ####    ##    #####   ##        **
 **           ##                                                    ##        **
 **                                                                           **
 **                                                ... make the atoms dance   **
 **                                                                           **
 **            Copyright (C) by CP2K developers group (2000-2025)             **
 **                      J. Chem. Phys. 152, 194103 (2020)                    **
 **                                                                           **
 *******************************************************************************

 DFT| Spin restricted Kohn-Sham (RKS) calculation                            RKS
 DFT| Multiplicity                                                             1
 DFT| Number of spin states                                                    1
 DFT| Charge                                                                   0
 DFT| Self-interaction correction (SIC)                                       NO
 DFT| Cutoffs: density                                              1.000000E-10
 DFT|          gradient                                             1.000000E-10
 DFT|          tau                                                  1.000000E-10
 DFT|          cutoff_smoothing_range                               0.000000E+00
 DFT| XC density smoothing                                                  NONE
 DFT| XC derivatives                                                          PW

 FUNCTIONAL| PBE:
 FUNCTIONAL| J.P.Perdew, K.Burke, M.Ernzerhof, Phys. Rev. Letter, vol. 77, n 18,
 FUNCTIONAL|  pp. 3865-3868, (1996)sx=0.750sc=1.000{spin unpolarized}           


 QS| Method:                                                                GAPW
 QS| Density plane wave grid type                        NON-SPHERICAL FULLSPACE
 QS| Number of grid levels:                                                    4
 QS| Density cutoff [a.u.]:                                                250.0
 QS| Multi grid cutoff [a.u.]: 1) grid level                               250.0
 QS|                           2) grid level                                83.3
 QS|                           3) grid level                                27.8
 QS|                           4) grid level                                 9.3
 QS| Grid level progression factor:                                          3.0
 QS| Relative density cutoff [a.u.]:                                        50.0
 QS| Interaction thresholds: eps_pgf_orb:                                1.0E-12
 QS|                         eps_filter_matrix:                          0.0E+00
 QS|                         eps_core_charge:                            1.0E-14
 QS|                         eps_rho_gspace:                             1.0E-12
 QS|                         eps_rho_rspace:                             1.0E-12
 QS|                         eps_gvg_rspace:                             1.0E-06
 QS|                         eps_ppl:                                    1.0E-02
 QS|                         eps_ppnl:                                   1.0E-08
 QS| GAPW|      One center basis from orbital basis primitives
 QS| GAPW|                   eps_fit:                                    1.0E-04
 QS| GAPW|                   eps_iso:                                    1.0E-12
 QS| GAPW|                   eps_svd:                                    1.0E-08
 QS| GAPW|                   eps_cpc:                                    1.0E-12
 QS| GAPW|   atom-r-grid: quadrature:                                     GC_LOG
 QS| GAPW|      atom-s-grid:  max l :                                          6
 QS| GAPW|      max_l_rho0 :                                                   2


 ATOMIC KIND INFORMATION

  1. Atomic kind: Cl                                    Number of atoms:       4

     Orbital Basis Set                                        aug-DZVP-MOLOPT-ae

       Number of orbital shell sets:                                           3
       Number of orbital shells:                                              12
       Number of primitive Cartesian functions:                               18
       Number of Cartesian basis functions:                                   39
       Number of spherical basis functions:                                   34
       Norm type:                                                              2

       Normalised Cartesian orbitals:

                        Set   Shell   Orbital            Exponent    Coefficient

                          1       1    1s                0.077000      -0.055972
                                                         0.154068      -0.150529
                                                         0.543592       0.356601
                                                         2.471054      -0.278595
                                                         7.247821      -0.098056
                                                        22.555186       0.000000
                                                        72.147284       0.000000
                                                       307.662624       0.000000

                          1       2    2px               0.077000       0.000000
                                                         0.154068      -0.003270
                                                         0.543592       0.000805
                                                         2.471054      -1.527312
                                                         7.247821      -8.880915
                                                        22.555186     -18.077865
                                                        72.147284     -18.092880
                                                       307.662624     -17.766715
                          1       2    2py               0.077000       0.000000
                                                         0.154068      -0.003270
                                                         0.543592       0.000805
                                                         2.471054      -1.527312
                                                         7.247821      -8.880915
                                                        22.555186     -18.077865
                                                        72.147284     -18.092880
                                                       307.662624     -17.766715
                          1       2    2pz               0.077000       0.000000
                                                         0.154068      -0.003270
                                                         0.543592       0.000805
                                                         2.471054      -1.527312
                                                         7.247821      -8.880915
                                                        22.555186     -18.077865
                                                        72.147284     -18.092880
                                                       307.662624     -17.766715

                          1       3    3px               0.077000       0.000000
                                                         0.154068       0.000503
                                                         0.543592       0.626386
                                                         2.471054       0.587728
                                                         7.247821      -1.439767
                                                        22.555186      -0.063520
                                                        72.147284      -1.414855
                                                       307.662624       7.955278
                          1       3    3py               0.077000       0.000000
                                                         0.154068       0.000503
                                                         0.543592       0.626386
                                                         2.471054       0.587728
                                                         7.247821      -1.439767
                                                        22.555186      -0.063520
                                                        72.147284      -1.414855
                                                       307.662624       7.955278
                          1       3    3pz               0.077000       0.000000
                                                         0.154068       0.000503
                                                         0.543592       0.626386
                                                         2.471054       0.587728
                                                         7.247821      -1.439767
                                                        22.555186      -0.063520
                                                        72.147284      -1.414855
                                                       307.662624       7.955278

                          1       4    4px               0.077000       0.000000
                                                         0.154068       0.138364
                                                         0.543592      -0.009132
                                                         2.471054       0.125424
                                                         7.247821      -1.081102
                                                        22.555186       0.165098
                                                        72.147284      -4.445275
                                                       307.662624      -7.846507
                          1       4    4py               0.077000       0.000000
                                                         0.154068       0.138364
                                                         0.543592      -0.009132
                                                         2.471054       0.125424
                                                         7.247821      -1.081102
                                                        22.555186       0.165098
                                                        72.147284      -4.445275
                                                       307.662624      -7.846507
                          1       4    4pz               0.077000       0.000000
                                                         0.154068       0.138364
                                                         0.543592      -0.009132
                                                         2.471054       0.125424
                                                         7.247821      -1.081102
                                                        22.555186       0.165098
                                                        72.147284      -4.445275
                                                       307.662624      -7.846507

                          1       5    5px               0.077000       0.023858
                                                         0.154068       0.049234
                                                         0.543592       0.261090
                                                         2.471054       0.018714
                                                         7.247821       0.000529
                                                        22.555186       0.000000
                                                        72.147284       0.000000
                                                       307.662624       0.000000
                          1       5    5py               0.077000       0.023858
                                                         0.154068       0.049234
                                                         0.543592       0.261090
                                                         2.471054       0.018714
                                                         7.247821       0.000529
                                                        22.555186       0.000000
                                                        72.147284       0.000000
                                                       307.662624       0.000000
                          1       5    5pz               0.077000       0.023858
                                                         0.154068       0.049234
                                                         0.543592       0.261090
                                                         2.471054       0.018714
                                                         7.247821       0.000529
                                                        22.555186       0.000000
                                                        72.147284       0.000000
                                                       307.662624       0.000000

                          1       6    3dx2              0.077000       0.000000
                                                         0.154068       0.021989
                                                         0.543592       0.387505
                                                         2.471054       1.600021
                                                         7.247821      -0.348096
                                                        22.555186       2.203691
                                                        72.147284      -8.429711
                                                       307.662624     151.584341
                          1       6    3dxy              0.077000       0.000000
                                                         0.154068       0.038086
                                                         0.543592       0.671178
                                                         2.471054       2.771318
                                                         7.247821      -0.602920
                                                        22.555186       3.816904
                                                        72.147284     -14.600687
                                                       307.662624     262.551781
                          1       6    3dxz              0.077000       0.000000
                                                         0.154068       0.038086
                                                         0.543592       0.671178
                                                         2.471054       2.771318
                                                         7.247821      -0.602920
                                                        22.555186       3.816904
                                                        72.147284     -14.600687
                                                       307.662624     262.551781
                          1       6    3dy2              0.077000       0.000000
                                                         0.154068       0.021989
                                                         0.543592       0.387505
                                                         2.471054       1.600021
                                                         7.247821      -0.348096
                                                        22.555186       2.203691
                                                        72.147284      -8.429711
                                                       307.662624     151.584341
                          1       6    3dyz              0.077000       0.000000
                                                         0.154068       0.038086
                                                         0.543592       0.671178
                                                         2.471054       2.771318
                                                         7.247821      -0.602920
                                                        22.555186       3.816904
                                                        72.147284     -14.600687
                                                       307.662624     262.551781
                          1       6    3dz2              0.077000       0.000000
                                                         0.154068       0.021989
                                                         0.543592       0.387505
                                                         2.471054       1.600021
                                                         7.247821      -0.348096
                                                        22.555186       2.203691
                                                        72.147284      -8.429711
                                                       307.662624     151.584341

                          1       7    4dx2              0.077000       0.002897
                                                         0.154068       0.042758
                                                         0.543592       0.171363
                                                         2.471054       0.010879
                                                         7.247821       0.664737
                                                        22.555186       0.000000
                                                        72.147284       0.000000
                                                       307.662624       0.000000
                          1       7    4dxy              0.077000       0.005018
                                                         0.154068       0.074059
                                                         0.543592       0.296810
                                                         2.471054       0.018844
                                                         7.247821       1.151358
                                                        22.555186       0.000000
                                                        72.147284       0.000000
                                                       307.662624       0.000000
                          1       7    4dxz              0.077000       0.005018
                                                         0.154068       0.074059
                                                         0.543592       0.296810
                                                         2.471054       0.018844
                                                         7.247821       1.151358
                                                        22.555186       0.000000
                                                        72.147284       0.000000
                                                       307.662624       0.000000
                          1       7    4dy2              0.077000       0.002897
                                                         0.154068       0.042758
                                                         0.543592       0.171363
                                                         2.471054       0.010879
                                                         7.247821       0.664737
                                                        22.555186       0.000000
                                                        72.147284       0.000000
                                                       307.662624       0.000000
                          1       7    4dyz              0.077000       0.005018
                                                         0.154068       0.074059
                                                         0.543592       0.296810
                                                         2.471054       0.018844
                                                         7.247821       1.151358
                                                        22.555186       0.000000
                                                        72.147284       0.000000
                                                       307.662624       0.000000
                          1       7    4dz2              0.077000       0.002897
                                                         0.154068       0.042758
                                                         0.543592       0.171363
                                                         2.471054       0.010879
                                                         7.247821       0.664737
                                                        22.555186       0.000000
                                                        72.147284       0.000000
                                                       307.662624       0.000000

                          1       8    4fx3              0.077000      -0.000682
                                                         0.154068      -0.004645
                                                         0.543592       0.364539
                                                         2.471054       2.324046
                                                         7.247821      -3.131662
                                                        22.555186       0.000000
                                                        72.147284       0.000000
                                                       307.662624       0.000000
                          1       8    4fx2y             0.077000      -0.001526
                                                         0.154068      -0.010386
                                                         0.543592       0.815134
                                                         2.471054       5.196725
                                                         7.247821      -7.002610
                                                        22.555186       0.000000
                                                        72.147284       0.000000
                                                       307.662624       0.000000
                          1       8    4fx2z             0.077000      -0.001526
                                                         0.154068      -0.010386
                                                         0.543592       0.815134
                                                         2.471054       5.196725
                                                         7.247821      -7.002610
                                                        22.555186       0.000000
                                                        72.147284       0.000000
                                                       307.662624       0.000000
                          1       8    4fxy2             0.077000      -0.001526
                                                         0.154068      -0.010386
                                                         0.543592       0.815134
                                                         2.471054       5.196725
                                                         7.247821      -7.002610
                                                        22.555186       0.000000
                                                        72.147284       0.000000
                                                       307.662624       0.000000
                          1       8    4fxyz             0.077000      -0.002643
                                                         0.154068      -0.017988
                                                         0.543592       1.411854
                                                         2.471054       9.000991
                                                         7.247821     -12.128876
                                                        22.555186       0.000000
                                                        72.147284       0.000000
                                                       307.662624       0.000000
                          1       8    4fxz2             0.077000      -0.001526
                                                         0.154068      -0.010386
                                                         0.543592       0.815134
                                                         2.471054       5.196725
                                                         7.247821      -7.002610
                                                        22.555186       0.000000
                                                        72.147284       0.000000
                                                       307.662624       0.000000
                          1       8    4fy3              0.077000      -0.000682
                                                         0.154068      -0.004645
                                                         0.543592       0.364539
                                                         2.471054       2.324046
                                                         7.247821      -3.131662
                                                        22.555186       0.000000
                                                        72.147284       0.000000
                                                       307.662624       0.000000
                          1       8    4fy2z             0.077000      -0.001526
                                                         0.154068      -0.010386
                                                         0.543592       0.815134
                                                         2.471054       5.196725
                                                         7.247821      -7.002610
                                                        22.555186       0.000000
                                                        72.147284       0.000000
                                                       307.662624       0.000000
                          1       8    4fyz2             0.077000      -0.001526
                                                         0.154068      -0.010386
                                                         0.543592       0.815134
                                                         2.471054       5.196725
                                                         7.247821      -7.002610
                                                        22.555186       0.000000
                                                        72.147284       0.000000
                                                       307.662624       0.000000
                          1       8    4fz3              0.077000      -0.000682
                                                         0.154068      -0.004645
                                                         0.543592       0.364539
                                                         2.471054       2.324046
                                                         7.247821      -3.131662
                                                        22.555186       0.000000
                                                        72.147284       0.000000
                                                       307.662624       0.000000

                          2       1    1s               51.912451      -1.311303
                                                         5.604127       1.619595
                                                         2.190751       0.633115
                                                         0.564844      -0.018786
                                                         0.202002      -0.016126

                          2       2    2s               51.912451      -0.638001
                                                         5.604127      -0.365237
                                                         2.190751       0.357352
                                                         0.564844       0.200580
                                                         0.202002       0.104412

                          2       3    3s               51.912451       1.146227
                                                         5.604127       3.181966
                                                         2.190751      -1.807965
                                                         0.564844       0.458760
                                                         0.202002       0.062644

                          3       1    1s            10449.738660       3.930369
                                                      1571.781775       7.442423
                                                       357.173295      10.621722
                                                       100.086675      10.913613
                                                        30.610026       3.977544

     RI Auxiliary Basis Set             RI_aug-DZVP-MOLOPT-ae_N_RI_114_s_p_d_f_g

       Number of orbital shell sets:                                          26
       Number of orbital shells:                                              26
       Number of primitive Cartesian functions:                               26
       Number of Cartesian basis functions:                                  155
       Number of spherical basis functions:                                  114
       Norm type:                                                              2

       Normalised Cartesian orbitals:

                        Set   Shell   Orbital            Exponent    Coefficient

                          1       1   23gx4              0.266554       0.029332
                          1       1   23gx3y             0.266554       0.077606
                          1       1   23gx3z             0.266554       0.077606
                          1       1   23gx2y2            0.266554       0.100188
                          1       1   23gx2yz            0.266554       0.173531
                          1       1   23gx2z2            0.266554       0.100188
                          1       1   23gxy3             0.266554       0.077606
                          1       1   23gxy2z            0.266554       0.173531
                          1       1   23gxyz2            0.266554       0.173531
                          1       1   23gxz3             0.266554       0.077606
                          1       1   23gy4              0.266554       0.029332
                          1       1   23gy3z             0.266554       0.077606
                          1       1   23gy2z2            0.266554       0.100188
                          1       1   23gyz3             0.266554       0.077606
                          1       1   23gz4              0.266554       0.029332

                          2       1    8px               0.267763       0.274554
                          2       1    8py               0.267763       0.274554
                          2       1    8pz               0.267763       0.274554

                          3       1   19fx3              0.311907       0.107031
                          3       1   19fx2y             0.311907       0.239329
                          3       1   19fx2z             0.311907       0.239329
                          3       1   19fxy2             0.311907       0.239329
                          3       1   19fxyz             0.311907       0.414531
                          3       1   19fxz2             0.311907       0.239329
                          3       1   19fy3              0.311907       0.107031
                          3       1   19fy2z             0.311907       0.239329
                          3       1   19fyz2             0.311907       0.239329
                          3       1   19fz3              0.311907       0.107031

                          4       1    1s                0.385199       0.348477

                          5       1   14dx2              0.451251       0.408923
                          5       1   14dxy              0.451251       0.708276
                          5       1   14dxz              0.451251       0.708276
                          5       1   14dy2              0.451251       0.408923
                          5       1   14dyz              0.451251       0.708276
                          5       1   14dz2              0.451251       0.408923

                          6       1   24gx4              0.534388       0.198628
                          6       1   24gx3y             0.534388       0.525521
                          6       1   24gx3z             0.534388       0.525521
                          6       1   24gx2y2            0.534388       0.678445
                          6       1   24gx2yz            0.534388       1.175101
                          6       1   24gx2z2            0.534388       0.678445
                          6       1   24gxy3             0.534388       0.525521
                          6       1   24gxy2z            0.534388       1.175101
                          6       1   24gxyz2            0.534388       1.175101
                          6       1   24gxz3             0.534388       0.525521
                          6       1   24gy4              0.534388       0.198628
                          6       1   24gy3z             0.534388       0.525521
                          6       1   24gy2z2            0.534388       0.678445
                          6       1   24gyz3             0.534388       0.525521
                          6       1   24gz4              0.534388       0.198628

                          7       1   15dx2              0.711087       0.906305
                          7       1   15dxy              0.711087       1.569766
                          7       1   15dxz              0.711087       1.569766
                          7       1   15dy2              0.711087       0.906305
                          7       1   15dyz              0.711087       1.569766
                          7       1   15dz2              0.711087       0.906305

                          8       1    2s                0.730968       0.563422

                          9       1    9px               0.770272       1.028597
                          9       1    9py               0.770272       1.028597
                          9       1    9pz               0.770272       1.028597

                         10       1   20fx3              0.861633       1.053004
                         10       1   20fx2y             0.861633       2.354589
                         10       1   20fx2z             0.861633       2.354589
                         10       1   20fxy2             0.861633       2.354589
                         10       1   20fxyz             0.861633       4.078267
                         10       1   20fxz2             0.861633       2.354589
                         10       1   20fy3              0.861633       1.053004
                         10       1   20fy2z             0.861633       2.354589
                         10       1   20fyz2             0.861633       2.354589
                         10       1   20fz3              0.861633       1.053004

                         11       1   25gx4              1.059613       1.304940
                         11       1   25gx3y             1.059613       3.452546
                         11       1   25gx3z             1.059613       3.452546
                         11       1   25gx2y2            1.059613       4.457218
                         11       1   25gx2yz            1.059613       7.720128
                         11       1   25gx2z2            1.059613       4.457218
                         11       1   25gxy3             1.059613       3.452546
                         11       1   25gxy2z            1.059613       7.720128
                         11       1   25gxyz2            1.059613       7.720128
                         11       1   25gxz3             1.059613       3.452546
                         11       1   25gy4              1.059613       1.304940
                         11       1   25gy3z             1.059613       3.452546
                         11       1   25gy2z2            1.059613       4.457218
                         11       1   25gyz3             1.059613       3.452546
                         11       1   25gz4              1.059613       1.304940

                         12       1   26gx4              2.188763       9.593605
                         12       1   26gx3y             2.188763      25.382292
                         12       1   26gx3z             2.188763      25.382292
                         12       1   26gx2y2            2.188763      32.768398
                         12       1   26gx2yz            2.188763      56.756531
                         12       1   26gx2z2            2.188763      32.768398
                         12       1   26gxy3             2.188763      25.382292
                         12       1   26gxy2z            2.188763      56.756531
                         12       1   26gxyz2            2.188763      56.756531
                         12       1   26gxz3             2.188763      25.382292
                         12       1   26gy4              2.188763       9.593605
                         12       1   26gy3z             2.188763      25.382292
                         12       1   26gy2z2            2.188763      32.768398
                         12       1   26gyz3             2.188763      25.382292
                         12       1   26gz4              2.188763       9.593605

                         13       1   21fx3              2.258175       9.202564
                         13       1   21fx2y             2.258175      20.577559
                         13       1   21fx2z             2.258175      20.577559
                         13       1   21fxy2             2.258175      20.577559
                         13       1   21fxyz             2.258175      35.641378
                         13       1   21fxz2             2.258175      20.577559
                         13       1   21fy3              2.258175       9.202564
                         13       1   21fy2z             2.258175      20.577559
                         13       1   21fyz2             2.258175      20.577559
                         13       1   21fz3              2.258175       9.202564

                         14       1   16dx2              2.681109       9.246128
                         14       1   16dxy              2.681109      16.014764
                         14       1   16dxz              2.681109      16.014764
                         14       1   16dy2              2.681109       9.246128
                         14       1   16dyz              2.681109      16.014764
                         14       1   16dz2              2.681109       9.246128

                         15       1    3s                2.691475       1.497624

                         16       1   10px               3.075803       5.806151
                         16       1   10py               3.075803       5.806151
                         16       1   10pz               3.075803       5.806151

                         17       1   22fx3              6.225923      90.139023
                         17       1   22fx2y             6.225923     201.556983
                         17       1   22fx2z             6.225923     201.556983
                         17       1   22fxy2             6.225923     201.556983
                         17       1   22fxyz             6.225923     349.106935
                         17       1   22fxz2             6.225923     201.556983
                         17       1   22fy3              6.225923      90.139023
                         17       1   22fy2z             6.225923     201.556983
                         17       1   22fyz2             6.225923     201.556983
                         17       1   22fz3              6.225923      90.139023

                         18       1   17dx2             10.390658      98.977119
                         18       1   17dxy             10.390658     171.433398
                         18       1   17dxz             10.390658     171.433398
                         18       1   17dy2             10.390658      98.977119
                         18       1   17dyz             10.390658     171.433398
                         18       1   17dz2             10.390658      98.977119

                         19       1   11px              10.588347      27.225465
                         19       1   11py              10.588347      27.225465
                         19       1   11pz              10.588347      27.225465

                         20       1    4s               11.084118       4.329482

                         21       1   12px              38.240548     135.548659
                         21       1   12py              38.240548     135.548659
                         21       1   12pz              38.240548     135.548659

                         22       1   18dx2             39.032072    1003.222523
                         22       1   18dxy             39.032072    1737.632381
                         22       1   18dxz             39.032072    1737.632381
                         22       1   18dy2             39.032072    1003.222523
                         22       1   18dyz             39.032072    1737.632381
                         22       1   18dz2             39.032072    1003.222523

                         23       1    5s               39.414416      11.211182

                         24       1    6s              130.505750      27.518980

                         25       1   13px             134.562797     653.275459
                         25       1   13py             134.562797     653.275459
                         25       1   13pz             134.562797     653.275459

                         26       1    7s              422.425693      66.408372

       Atomic covalent radius [Angstrom]:                                  0.990

       Atomic van der Waals radius [Angstrom]:                             1.750

     The atoms of this atomic kind are PAW atoms (GAPW):
       Hard Gaussian function radius:                                      1.512
       Rho0 radius:                                                        1.512
       Maximum GTO radius used for PAW projector construction:            24.566

     GAPW Soft Basis Set                                 aug-DZVP-MOLOPT-ae_soft

       Number of orbital shell sets:                                           3
       Number of orbital shells:                                              12
       Number of primitive Cartesian functions:                                7
       Number of Cartesian basis functions:                                   39
       Number of spherical basis functions:                                   34
       Norm type:                                                              2

       Normalised Cartesian orbitals:

                        Set   Shell   Orbital            Exponent    Coefficient

                          1       1    1s                0.077000      -0.055972
                                                         0.154068      -0.150529
                                                         0.543592       0.356601
                                                         2.471054      -0.278595

                          1       2    2px               0.077000       0.000000
                                                         0.154068      -0.003270
                                                         0.543592       0.000805
                                                         2.471054      -1.527312
                          1       2    2py               0.077000       0.000000
                                                         0.154068      -0.003270
                                                         0.543592       0.000805
                                                         2.471054      -1.527312
                          1       2    2pz               0.077000       0.000000
                                                         0.154068      -0.003270
                                                         0.543592       0.000805
                                                         2.471054      -1.527312

                          1       3    3px               0.077000       0.000000
                                                         0.154068       0.000503
                                                         0.543592       0.626386
                                                         2.471054       0.587728
                          1       3    3py               0.077000       0.000000
                                                         0.154068       0.000503
                                                         0.543592       0.626386
                                                         2.471054       0.587728
                          1       3    3pz               0.077000       0.000000
                                                         0.154068       0.000503
                                                         0.543592       0.626386
                                                         2.471054       0.587728

                          1       4    4px               0.077000       0.000000
                                                         0.154068       0.138364
                                                         0.543592      -0.009132
                                                         2.471054       0.125424
                          1       4    4py               0.077000       0.000000
                                                         0.154068       0.138364
                                                         0.543592      -0.009132
                                                         2.471054       0.125424
                          1       4    4pz               0.077000       0.000000
                                                         0.154068       0.138364
                                                         0.543592      -0.009132
                                                         2.471054       0.125424

                          1       5    5px               0.077000       0.023858
                                                         0.154068       0.049234
                                                         0.543592       0.261090
                                                         2.471054       0.018714
                          1       5    5py               0.077000       0.023858
                                                         0.154068       0.049234
                                                         0.543592       0.261090
                                                         2.471054       0.018714
                          1       5    5pz               0.077000       0.023858
                                                         0.154068       0.049234
                                                         0.543592       0.261090
                                                         2.471054       0.018714

                          1       6    3dx2              0.077000       0.000000
                                                         0.154068       0.021989
                                                         0.543592       0.387505
                                                         2.471054       1.600021
                          1       6    3dxy              0.077000       0.000000
                                                         0.154068       0.038086
                                                         0.543592       0.671178
                                                         2.471054       2.771318
                          1       6    3dxz              0.077000       0.000000
                                                         0.154068       0.038086
                                                         0.543592       0.671178
                                                         2.471054       2.771318
                          1       6    3dy2              0.077000       0.000000
                                                         0.154068       0.021989
                                                         0.543592       0.387505
                                                         2.471054       1.600021
                          1       6    3dyz              0.077000       0.000000
                                                         0.154068       0.038086
                                                         0.543592       0.671178
                                                         2.471054       2.771318
                          1       6    3dz2              0.077000       0.000000
                                                         0.154068       0.021989
                                                         0.543592       0.387505
                                                         2.471054       1.600021

                          1       7    4dx2              0.077000       0.002897
                                                         0.154068       0.042758
                                                         0.543592       0.171363
                                                         2.471054       0.010879
                          1       7    4dxy              0.077000       0.005018
                                                         0.154068       0.074059
                                                         0.543592       0.296810
                                                         2.471054       0.018844
                          1       7    4dxz              0.077000       0.005018
                                                         0.154068       0.074059
                                                         0.543592       0.296810
                                                         2.471054       0.018844
                          1       7    4dy2              0.077000       0.002897
                                                         0.154068       0.042758
                                                         0.543592       0.171363
                                                         2.471054       0.010879
                          1       7    4dyz              0.077000       0.005018
                                                         0.154068       0.074059
                                                         0.543592       0.296810
                                                         2.471054       0.018844
                          1       7    4dz2              0.077000       0.002897
                                                         0.154068       0.042758
                                                         0.543592       0.171363
                                                         2.471054       0.010879

                          1       8    4fx3              0.077000      -0.000682
                                                         0.154068      -0.004645
                                                         0.543592       0.364539
                                                         2.471054       2.324046
                          1       8    4fx2y             0.077000      -0.001526
                                                         0.154068      -0.010386
                                                         0.543592       0.815134
                                                         2.471054       5.196725
                          1       8    4fx2z             0.077000      -0.001526
                                                         0.154068      -0.010386
                                                         0.543592       0.815134
                                                         2.471054       5.196725
                          1       8    4fxy2             0.077000      -0.001526
                                                         0.154068      -0.010386
                                                         0.543592       0.815134
                                                         2.471054       5.196725
                          1       8    4fxyz             0.077000      -0.002643
                                                         0.154068      -0.017988
                                                         0.543592       1.411854
                                                         2.471054       9.000991
                          1       8    4fxz2             0.077000      -0.001526
                                                         0.154068      -0.010386
                                                         0.543592       0.815134
                                                         2.471054       5.196725
                          1       8    4fy3              0.077000      -0.000682
                                                         0.154068      -0.004645
                                                         0.543592       0.364539
                                                         2.471054       2.324046
                          1       8    4fy2z             0.077000      -0.001526
                                                         0.154068      -0.010386
                                                         0.543592       0.815134
                                                         2.471054       5.196725
                          1       8    4fyz2             0.077000      -0.001526
                                                         0.154068      -0.010386
                                                         0.543592       0.815134
                                                         2.471054       5.196725
                          1       8    4fz3              0.077000      -0.000682
                                                         0.154068      -0.004645
                                                         0.543592       0.364539
                                                         2.471054       2.324046

                          2       1    1s                2.190751       0.633115
                                                         0.564844      -0.018786
                                                         0.202002      -0.016126

                          2       2    2s                2.190751       0.357352
                                                         0.564844       0.200580
                                                         0.202002       0.104412

                          2       3    3s                2.190751      -1.807965
                                                         0.564844       0.458760
                                                         0.202002       0.062644

                          3       1    1s         

     AE Potential information for                                            ALL

       Description:                                       All-electron potential
                                          Krack, Parrinello, PCCP 2, 2105 (2000)

       Gaussian exponent of the core charge distribution:               2.974420
       Electronic configuration (s p d ...):                           6  11   0

  2. Atomic kind: C                                     Number of atoms:       5

     Orbital Basis Set                                        aug-DZVP-MOLOPT-ae

       Number of orbital shell sets:                                           2
       Number of orbital shells:                                              10
       Number of primitive Cartesian functions:                               13
       Number of Cartesian basis functions:                                   35
       Number of spherical basis functions:                                   30
       Norm type:                                                              2

       Normalised Cartesian orbitals:

                        Set   Shell   Orbital            Exponent    Coefficient

                          1       1    2px               0.050000       0.000000
                                                         0.096935       0.005344
                                                         0.300899       0.144116
                                                         0.937529       0.673511
                                                         4.145546       1.425967
                          1       1    2py               0.050000       0.000000
                                                         0.096935       0.005344
                                                         0.300899       0.144116
                                                         0.937529       0.673511
                                                         4.145546       1.425967
                          1       1    2pz               0.050000       0.000000
                                                         0.096935       0.005344
                                                         0.300899       0.144116
                                                         0.937529       0.673511
                                                         4.145546       1.425967

                          1       2    3px               0.050000       0.000000
                                                         0.096935       0.066903
                                                         0.300899       0.082631
                                                         0.937529      -0.414500
                                                         4.145546      -0.833488
                          1       2    3py               0.050000       0.000000
                                                         0.096935       0.066903
                                                         0.300899       0.082631
                                                         0.937529      -0.414500
                                                         4.145546      -0.833488
                          1       2    3pz               0.050000       0.000000
                                                         0.096935       0.066903
                                                         0.300899       0.082631
                                                         0.937529      -0.414500
                                                         4.145546      -0.833488

                          1       3    4px               0.050000       0.052477
                                                         0.096935      -0.149600
                                                         0.300899      -0.031452
                                                         0.937529       0.106528
                                                         4.145546       0.000000
                          1       3    4py               0.050000       0.052477
                                                         0.096935      -0.149600
                                                         0.300899      -0.031452
                                                         0.937529       0.106528
                                                         4.145546       0.000000
                          1       3    4pz               0.050000       0.052477
                                                         0.096935      -0.149600
                                                         0.300899      -0.031452
                                                         0.937529       0.106528
                                                         4.145546       0.000000

                          1       4    3dx2              0.050000       0.000000
                                                         0.096935       0.001258
                                                         0.300899       0.105504
                                                         0.937529       0.830801
                                                         4.145546       0.718979
                          1       4    3dxy              0.050000       0.000000
                                                         0.096935       0.002179
                                                         0.300899       0.182739
                                                         0.937529       1.438990
                                                         4.145546       1.245309
                          1       4    3dxz              0.050000       0.000000
                                                         0.096935       0.002179
                                                         0.300899       0.182739
                                                         0.937529       1.438990
                                                         4.145546       1.245309
                          1       4    3dy2              0.050000       0.000000
                                                         0.096935       0.001258
                                                         0.300899       0.105504
                                                         0.937529       0.830801
                                                         4.145546       0.718979
                          1       4    3dyz              0.050000       0.000000
                                                         0.096935       0.002179
                                                         0.300899       0.182739
                                                         0.937529       1.438990
                                                         4.145546       1.245309
                          1       4    3dz2              0.050000       0.000000
                                                         0.096935       0.001258
                                                         0.300899       0.105504
                                                         0.937529       0.830801
                                                         4.145546       0.718979

                          1       5    4dx2              0.050000      -0.011665
                                                         0.096935       0.057456
                                                         0.300899      -0.258169
                                                         0.937529       0.000000
                                                         4.145546       0.000000
                          1       5    4dxy              0.050000      -0.020204
                                                         0.096935       0.099516
                                                         0.300899      -0.447162
                                                         0.937529       0.000000
                                                         4.145546       0.000000
                          1       5    4dxz              0.050000      -0.020204
                                                         0.096935       0.099516
                                                         0.300899      -0.447162
                                                         0.937529       0.000000
                                                         4.145546       0.000000
                          1       5    4dy2              0.050000      -0.011665
                                                         0.096935       0.057456
                                                         0.300899      -0.258169
                                                         0.937529       0.000000
                                                         4.145546       0.000000
                          1       5    4dyz              0.050000      -0.020204
                                                         0.096935       0.099516
                                                         0.300899      -0.447162
                                                         0.937529       0.000000
                                                         4.145546       0.000000
                          1       5    4dz2              0.050000      -0.011665
                                                         0.096935       0.057456
                                                         0.300899      -0.258169
                                                         0.937529       0.000000
                                                         4.145546       0.000000

                          1       6    4fx3              0.050000      -0.000180
                                                         0.096935       0.008160
                                                         0.300899       0.004002
                                                         0.937529       0.000000
                                                         4.145546       0.000000
                          1       6    4fx2y             0.050000      -0.000402
                                                         0.096935       0.018246
                                                         0.300899       0.008949
                                                         0.937529       0.000000
                                                         4.145546       0.000000
                          1       6    4fx2z             0.050000      -0.000402
                                                         0.096935       0.018246
                                                         0.300899       0.008949
                                                         0.937529       0.000000
                                                         4.145546       0.000000
                          1       6    4fxy2             0.050000      -0.000402
                                                         0.096935       0.018246
                                                         0.300899       0.008949
                                                         0.937529       0.000000
                                                         4.145546       0.000000
                          1       6    4fxyz             0.050000      -0.000696
                                                         0.096935       0.031603
                                                         0.300899       0.015500
                                                         0.937529       0.000000
                                                         4.145546       0.000000
                          1       6    4fxz2             0.050000      -0.000402
                                                         0.096935       0.018246
                                                         0.300899       0.008949
                                                         0.937529       0.000000
                                                         4.145546       0.000000
                          1       6    4fy3              0.050000      -0.000180
                                                         0.096935       0.008160
                                                         0.300899       0.004002
                                                         0.937529       0.000000
                                                         4.145546       0.000000
                          1       6    4fy2z             0.050000      -0.000402
                                                         0.096935       0.018246
                                                         0.300899       0.008949
                                                         0.937529       0.000000
                                                         4.145546       0.000000
                          1       6    4fyz2             0.050000      -0.000402
                                                         0.096935       0.018246
                                                         0.300899       0.008949
                                                         0.937529       0.000000
                                                         4.145546       0.000000
                          1       6    4fz3              0.050000      -0.000180
                                                         0.096935       0.008160
                                                         0.300899       0.004002
                                                         0.937529       0.000000
                                                         4.145546       0.000000

                          2       1    1s                0.060000       0.000000
                                                         0.161278       0.024253
                                                         0.523772      -0.029268
                                                         3.176528       0.666384
                                                        10.501907       2.110671
                                                        40.805234       2.242010
                                                       186.270922       1.801845
                                                      1238.394264      -0.490536

                          2       2    2s                0.060000       0.000000
                                                         0.161278       0.080328
                                                         0.523772       0.279468
                                                         3.176528      -0.079506
                                                        10.501907      -0.033488
                                                        40.805234       0.350132
                                                       186.270922      -0.108171
                                                      1238.394264       0.147138

                          2       3    3s                0.060000       0.000000
                                                         0.161278       0.225687
                                                         0.523772      -0.382710
                                                         3.176528      -0.308205
                                                        10.501907      -0.974990
                                                        40.805234      -2.174132
                                                       186.270922       1.755878
                                                      1238.394264     -12.484315

                          2       4    4s                0.060000      -0.055653
                                                         0.161278      -0.019607
                                                         0.523772       0.500289
                                                         3.176528       0.067234
                                                        10.501907       0.000000
                                                        40.805234       0.000000
                                                       186.270922       0.000000
                                                      1238.394264       0.000000

     RI Auxiliary Basis Set             RI_aug-DZVP-MOLOPT-ae_N_RI_060_s_p_d_f_g

       Number of orbital shell sets:                                          18
       Number of orbital shells:                                              18
       Number of primitive Cartesian functions:                               18
       Number of Cartesian basis functions:                                   75
       Number of spherical basis functions:                                   60
       Norm type:                                                              2

       Normalised Cartesian orbitals:

                        Set   Shell   Orbital            Exponent    Coefficient

                          1       1    1s                0.139029       0.162270

                          2       1   13dx2              0.260720       0.156572
                          2       1   13dxy              0.260720       0.271190
                          2       1   13dxz              0.260720       0.271190
                          2       1   13dy2              0.260720       0.156572
                          2       1   13dyz              0.260720       0.271190
                          2       1   13dz2              0.260720       0.156572

                          3       1    8px               0.263737       0.269404
                          3       1    8py               0.263737       0.269404
                          3       1    8pz               0.263737       0.269404

                          4       1   16fx3              0.295019       0.094432
                          4       1   16fx2y             0.295019       0.211156
                          4       1   16fx2z             0.295019       0.211156
                          4       1   16fxy2             0.295019       0.211156
                          4       1   16fxyz             0.295019       0.365732
                          4       1   16fxz2             0.295019       0.211156
                          4       1   16fy3              0.295019       0.094432
                          4       1   16fy2z             0.295019       0.211156
                          4       1   16fyz2             0.295019       0.211156
                          4       1   16fz3              0.295019       0.094432

                          5       1    2s                0.350935       0.324960

                          6       1    9px               0.711576       0.931572
                          6       1    9py               0.711576       0.931572
                          6       1    9pz               0.711576       0.931572

                          7       1   14dx2              0.722037       0.930870
                          7       1   14dxy              0.722037       1.612314
                          7       1   14dxz              0.722037       1.612314
                          7       1   14dy2              0.722037       0.930870
                          7       1   14dyz              0.722037       1.612314
                          7       1   14dz2              0.722037       0.930870

                          8       1   18gx4              0.735195       0.477576
                          8       1   18gx3y             0.735195       1.263547
                          8       1   18gx3z             0.735195       1.263547
                          8       1   18gx2y2            0.735195       1.631232
                          8       1   18gx2yz            0.735195       2.825377
                          8       1   18gx2z2            0.735195       1.631232
                          8       1   18gxy3             0.735195       1.263547
                          8       1   18gxy2z            0.735195       2.825377
                          8       1   18gxyz2            0.735195       2.825377
                          8       1   18gxz3             0.735195       1.263547
                          8       1   18gy4              0.735195       0.477576
                          8       1   18gy3z             0.735195       1.263547
                          8       1   18gy2z2            0.735195       1.631232
                          8       1   18gyz3             0.735195       1.263547
                          8       1   18gz4              0.735195       0.477576

                          9       1    3s                1.027105       0.727145

                         10       1   17fx3              1.228639       2.339694
                         10       1   17fx2y             1.228639       5.231715
                         10       1   17fx2z             1.228639       5.231715
                         10       1   17fxy2             1.228639       5.231715
                         10       1   17fxyz             1.228639       9.061596
                         10       1   17fxz2             1.228639       5.231715
                         10       1   17fy3              1.228639       2.339694
                         10       1   17fy2z             1.228639       5.231715
                         10       1   17fyz2             1.228639       5.231715
                         10       1   17fz3              1.228639       2.339694

                         11       1   10px               1.813548       2.999863
                         11       1   10py               1.813548       2.999863
                         11       1   10pz               1.813548       2.999863

                         12       1   15dx2              2.060642       5.833296
                         12       1   15dxy              2.060642      10.103564
                         12       1   15dxz              2.060642      10.103564
                         12       1   15dy2              2.060642       5.833296
                         12       1   15dyz              2.060642      10.103564
                         12       1   15dz2              2.060642       5.833296

                         13       1    4s                3.115108       1.671148

                         14       1   11px               5.572228      12.203269
                         14       1   11py               5.572228      12.203269
                         14       1   11pz               5.572228      12.203269

                         15       1    5s                9.292692       3.793292

                         16       1   12px              16.974300      49.111129
                         16       1   12py              16.974300      49.111129
                         16       1   12pz              16.974300      49.111129

                         17       1    6s               27.662549       8.596650

                         18       1    7s               82.345042      19.482208

       Atomic covalent radius [Angstrom]:                                  0.770

       Atomic van der Waals radius [Angstrom]:                             1.700

     The atoms of this atomic kind are PAW atoms (GAPW):
       Hard Gaussian function radius:                                      1.512
       Rho0 radius:                                                        1.512
       Maximum GTO radius used for PAW projector construction:            24.566

     GAPW Soft Basis Set                                 aug-DZVP-MOLOPT-ae_soft

       Number of orbital shell sets:                                           2
       Number of orbital shells:                                              10
       Number of primitive Cartesian functions:                                9
       Number of Cartesian basis functions:                                   35
       Number of spherical basis functions:                                   30
       Norm type:                                                              2

       Normalised Cartesian orbitals:

                        Set   Shell   Orbital            Exponent    Coefficient

                          1       1    2px               0.050000       0.000000
                                                         0.096935       0.005344
                                                         0.300899       0.144116
                                                         0.937529       0.673511
                                                         4.145546       1.425967
                          1       1    2py               0.050000       0.000000
                                                         0.096935       0.005344
                                                         0.300899       0.144116
                                                         0.937529       0.673511
                                                         4.145546       1.425967
                          1       1    2pz               0.050000       0.000000
                                                         0.096935       0.005344
                                                         0.300899       0.144116
                                                         0.937529       0.673511
                                                         4.145546       1.425967

                          1       2    3px               0.050000       0.000000
                                                         0.096935       0.066903
                                                         0.300899       0.082631
                                                         0.937529      -0.414500
                                                         4.145546      -0.833488
                          1       2    3py               0.050000       0.000000
                                                         0.096935       0.066903
                                                         0.300899       0.082631
                                                         0.937529      -0.414500
                                                         4.145546      -0.833488
                          1       2    3pz               0.050000       0.000000
                                                         0.096935       0.066903
                                                         0.300899       0.082631
                                                         0.937529      -0.414500
                                                         4.145546      -0.833488

                          1       3    4px               0.050000       0.052477
                                                         0.096935      -0.149600
                                                         0.300899      -0.031452
                                                         0.937529       0.106528
                                                         4.145546       0.000000
                          1       3    4py               0.050000       0.052477
                                                         0.096935      -0.149600
                                                         0.300899      -0.031452
                                                         0.937529       0.106528
                                                         4.145546       0.000000
                          1       3    4pz               0.050000       0.052477
                                                         0.096935      -0.149600
                                                         0.300899      -0.031452
                                                         0.937529       0.106528
                                                         4.145546       0.000000

                          1       4    3dx2              0.050000       0.000000
                                                         0.096935       0.001258
                                                         0.300899       0.105504
                                                         0.937529       0.830801
                                                         4.145546       0.718979
                          1       4    3dxy              0.050000       0.000000
                                                         0.096935       0.002179
                                                         0.300899       0.182739
                                                         0.937529       1.438990
                                                         4.145546       1.245309
                          1       4    3dxz              0.050000       0.000000
                                                         0.096935       0.002179
                                                         0.300899       0.182739
                                                         0.937529       1.438990
                                                         4.145546       1.245309
                          1       4    3dy2              0.050000       0.000000
                                                         0.096935       0.001258
                                                         0.300899       0.105504
                                                         0.937529       0.830801
                                                         4.145546       0.718979
                          1       4    3dyz              0.050000       0.000000
                                                         0.096935       0.002179
                                                         0.300899       0.182739
                                                         0.937529       1.438990
                                                         4.145546       1.245309
                          1       4    3dz2              0.050000       0.000000
                                                         0.096935       0.001258
                                                         0.300899       0.105504
                                                         0.937529       0.830801
                                                         4.145546       0.718979

                          1       5    4dx2              0.050000      -0.011665
                                                         0.096935       0.057456
                                                         0.300899      -0.258169
                                                         0.937529       0.000000
                                                         4.145546       0.000000
                          1       5    4dxy              0.050000      -0.020204
                                                         0.096935       0.099516
                                                         0.300899      -0.447162
                                                         0.937529       0.000000
                                                         4.145546       0.000000
                          1       5    4dxz              0.050000      -0.020204
                                                         0.096935       0.099516
                                                         0.300899      -0.447162
                                                         0.937529       0.000000
                                                         4.145546       0.000000
                          1       5    4dy2              0.050000      -0.011665
                                                         0.096935       0.057456
                                                         0.300899      -0.258169
                                                         0.937529       0.000000
                                                         4.145546       0.000000
                          1       5    4dyz              0.050000      -0.020204
                                                         0.096935       0.099516
                                                         0.300899      -0.447162
                                                         0.937529       0.000000
                                                         4.145546       0.000000
                          1       5    4dz2              0.050000      -0.011665
                                                         0.096935       0.057456
                                                         0.300899      -0.258169
                                                         0.937529       0.000000
                                                         4.145546       0.000000

                          1       6    4fx3              0.050000      -0.000180
                                                         0.096935       0.008160
                                                         0.300899       0.004002
                                                         0.937529       0.000000
                                                         4.145546       0.000000
                          1       6    4fx2y             0.050000      -0.000402
                                                         0.096935       0.018246
                                                         0.300899       0.008949
                                                         0.937529       0.000000
                                                         4.145546       0.000000
                          1       6    4fx2z             0.050000      -0.000402
                                                         0.096935       0.018246
                                                         0.300899       0.008949
                                                         0.937529       0.000000
                                                         4.145546       0.000000
                          1       6    4fxy2             0.050000      -0.000402
                                                         0.096935       0.018246
                                                         0.300899       0.008949
                                                         0.937529       0.000000
                                                         4.145546       0.000000
                          1       6    4fxyz             0.050000      -0.000696
                                                         0.096935       0.031603
                                                         0.300899       0.015500
                                                         0.937529       0.000000
                                                         4.145546       0.000000
                          1       6    4fxz2             0.050000      -0.000402
                                                         0.096935       0.018246
                                                         0.300899       0.008949
                                                         0.937529       0.000000
                                                         4.145546       0.000000
                          1       6    4fy3              0.050000      -0.000180
                                                         0.096935       0.008160
                                                         0.300899       0.004002
                                                         0.937529       0.000000
                                                         4.145546       0.000000
                          1       6    4fy2z             0.050000      -0.000402
                                                         0.096935       0.018246
                                                         0.300899       0.008949
                                                         0.937529       0.000000
                                                         4.145546       0.000000
                          1       6    4fyz2             0.050000      -0.000402
                                                         0.096935       0.018246
                                                         0.300899       0.008949
                                                         0.937529       0.000000
                                                         4.145546       0.000000
                          1       6    4fz3              0.050000      -0.000180
                                                         0.096935       0.008160
                                                         0.300899       0.004002
                                                         0.937529       0.000000
                                                         4.145546       0.000000

                          2       1    1s                0.060000       0.000000
                                                         0.161278       0.024253
                                                         0.523772      -0.029268
                                                         3.176528       0.666384

                          2       2    2s                0.060000       0.000000
                                                         0.161278       0.080328
                                                         0.523772       0.279468
                                                         3.176528      -0.079506

                          2       3    3s                0.060000       0.000000
                                                         0.161278       0.225687
                                                         0.523772      -0.382710
                                                         3.176528      -0.308205

                          2       4    4s                0.060000      -0.055653
                                                         0.161278      -0.019607
                                                         0.523772       0.500289
                                                         3.176528       0.067234

     AE Potential information for                                            ALL

       Description:                                       All-electron potential
                                          Krack, Parrinello, PCCP 2, 2105 (2000)

       Gaussian exponent of the core charge distribution:               4.109048
       Electronic configuration (s p d ...):                           4   2   0

  3. Atomic kind: N                                     Number of atoms:       2

     Orbital Basis Set                                        aug-DZVP-MOLOPT-ae

       Number of orbital shell sets:                                           2
       Number of orbital shells:                                              10
       Number of primitive Cartesian functions:                               12
       Number of Cartesian basis functions:                                   35
       Number of spherical basis functions:                                   30
       Norm type:                                                              2

       Normalised Cartesian orbitals:

                        Set   Shell   Orbital            Exponent    Coefficient

                          1       1    2s                0.060000      -0.096639
                                                         0.166384       0.037538
                                                         0.634073      -0.055669
                                                         2.325354       0.000000
                                                        12.268174       0.000000

                          1       2    3px               0.060000       0.000000
                                                         0.166384      -0.031930
                                                         0.634073      -0.492962
                                                         2.325354      -1.380142
                                                        12.268174      -2.349358
                          1       2    3py               0.060000       0.000000
                                                         0.166384      -0.031930
                                                         0.634073      -0.492962
                                                         2.325354      -1.380142
                                                        12.268174      -2.349358
                          1       2    3pz               0.060000       0.000000
                                                         0.166384      -0.031930
                                                         0.634073      -0.492962
                                                         2.325354      -1.380142
                                                        12.268174      -2.349358

                          1       3    4px               0.060000       0.000000
                                                         0.166384       0.169694
                                                         0.634073      -0.220766
                                                         2.325354      -0.809234
                                                        12.268174      -0.998521
                          1       3    4py               0.060000       0.000000
                                                         0.166384       0.169694
                                                         0.634073      -0.220766
                                                         2.325354      -0.809234
                                                        12.268174      -0.998521
                          1       3    4pz               0.060000       0.000000
                                                         0.166384       0.169694
                                                         0.634073      -0.220766
                                                         2.325354      -0.809234
                                                        12.268174      -0.998521

                          1       4    5px               0.060000       0.028594
                                                         0.166384       0.063224
                                                         0.634073      -0.046183
                                                         2.325354       0.000000
                                                        12.268174       0.000000
                          1       4    5py               0.060000       0.028594
                                                         0.166384       0.063224
                                                         0.634073      -0.046183
                                                         2.325354       0.000000
                                                        12.268174       0.000000
                          1       4    5pz               0.060000       0.028594
                                                         0.166384       0.063224
                                                         0.634073      -0.046183
                                                         2.325354       0.000000
                                                        12.268174       0.000000

                          1       5    4dx2              0.060000       0.000000
                                                         0.166384       0.019402
                                                         0.634073       0.555487
                                                         2.325354       1.255926
                                                        12.268174      -0.426175
                          1       5    4dxy              0.060000       0.000000
                                                         0.166384       0.033606
                                                         0.634073       0.962132
                                                         2.325354       2.175327
                                                        12.268174      -0.738157
                          1       5    4dxz              0.060000       0.000000
                                                         0.166384       0.033606
                                                         0.634073       0.962132
                                                         2.325354       2.175327
                                                        12.268174      -0.738157
                          1       5    4dy2              0.060000       0.000000
                                                         0.166384       0.019402
                                                         0.634073       0.555487
                                                         2.325354       1.255926
                                                        12.268174      -0.426175
                          1       5    4dyz              0.060000       0.000000
                                                         0.166384       0.033606
                                                         0.634073       0.962132
                                                         2.325354       2.175327
                                                        12.268174      -0.738157
                          1       5    4dz2              0.060000       0.000000
                                                         0.166384       0.019402
                                                         0.634073       0.555487
                                                         2.325354       1.255926
                                                        12.268174      -0.426175

                          1       6    5dx2              0.060000      -0.008089
                                                         0.166384      -0.027907
                                                         0.634073      -0.057221
                                                         2.325354       0.000000
                                                        12.268174       0.000000
                          1       6    5dxy              0.060000      -0.014011
                                                         0.166384      -0.048336
                                                         0.634073      -0.099109
                                                         2.325354       0.000000
                                                        12.268174       0.000000
                          1       6    5dxz              0.060000      -0.014011
                                                         0.166384      -0.048336
                                                         0.634073      -0.099109
                                                         2.325354       0.000000
                                                        12.268174       0.000000
                          1       6    5dy2              0.060000      -0.008089
                                                         0.166384      -0.027907
                                                         0.634073      -0.057221
                                                         2.325354       0.000000
                                                        12.268174       0.000000
                          1       6    5dyz              0.060000      -0.014011
                                                         0.166384      -0.048336
                                                         0.634073      -0.099109
                                                         2.325354       0.000000
                                                        12.268174       0.000000
                          1       6    5dz2              0.060000      -0.008089
                                                         0.166384      -0.027907
                                                         0.634073      -0.057221
                                                         2.325354       0.000000
                                                        12.268174       0.000000

                          1       7    5fx3              0.060000       0.000067
                                                         0.166384       0.012645
                                                         0.634073       0.328269
                                                         2.325354       1.687172
                                                        12.268174       0.000000
                          1       7    5fx2y             0.060000       0.000150
                                                         0.166384       0.028275
                                                         0.634073       0.734031
                                                         2.325354       3.772631
                                                        12.268174       0.000000
                          1       7    5fx2z             0.060000       0.000150
                                                         0.166384       0.028275
                                                         0.634073       0.734031
                                                         2.325354       3.772631
                                                        12.268174       0.000000
                          1       7    5fxy2             0.060000       0.000150
                                                         0.166384       0.028275
                                                         0.634073       0.734031
                                                         2.325354       3.772631
                                                        12.268174       0.000000
                          1       7    5fxyz             0.060000       0.000260
                                                         0.166384       0.048973
                                                         0.634073       1.271379
                                                         2.325354       6.534389
                                                        12.268174       0.000000
                          1       7    5fxz2             0.060000       0.000150
                                                         0.166384       0.028275
                                                         0.634073       0.734031
                                                         2.325354       3.772631
                                                        12.268174       0.000000
                          1       7    5fy3              0.060000       0.000067
                                                         0.166384       0.012645
                                                         0.634073       0.328269
                                                         2.325354       1.687172
                                                        12.268174       0.000000
                          1       7    5fy2z             0.060000       0.000150
                                                         0.166384       0.028275
                                                         0.634073       0.734031
                                                         2.325354       3.772631
                                                        12.268174       0.000000
                          1       7    5fyz2             0.060000       0.000150
                                                         0.166384       0.028275
                                                         0.634073       0.734031
                                                         2.325354       3.772631
                                                        12.268174       0.000000
                          1       7    5fz3              0.060000       0.000067
                                                         0.166384       0.012645
                                                         0.634073       0.328269
                                                         2.325354       1.687172
                                                        12.268174       0.000000

                          2       1    1s                0.191012      -0.002582
                                                         0.666629       0.012902
                                                         4.403487      -0.858326
                                                        14.651380      -2.749170
                                                        57.692026      -2.958222
                                                       257.997554      -1.897300
                                                      1713.054433      -1.166486

                          2       2    2s                0.191012       0.079194
                                                         0.666629       0.351708
                                                         4.403487       0.009155
                                                        14.651380       0.000424
                                                        57.692026       0.772862
                                                       257.997554      -0.458166
                                                      1713.054433       0.520658

                          2       3    3s                0.191012       0.300064
                                                         0.666629      -0.436823
                                                         4.403487      -0.072962
                                                        14.651380      -0.095292
                                                        57.692026      -1.262420
                                                       257.997554       0.741400
                                                      1713.054433      -0.270364

     RI Auxiliary Basis Set             RI_aug-DZVP-MOLOPT-ae_N_RI_056_s_p_d_f_g

       Number of orbital shell sets:                                          16
       Number of orbital shells:                                              16
       Number of primitive Cartesian functions:                               16
       Number of Cartesian basis functions:                                   71
       Number of spherical basis functions:                                   56
       Norm type:                                                              2

       Normalised Cartesian orbitals:

                        Set   Shell   Orbital            Exponent    Coefficient

                          1       1    1s                0.294979       0.285268

                          2       1    7px               0.368800       0.409664
                          2       1    7py               0.368800       0.409664
                          2       1    7pz               0.368800       0.409664

                          3       1   14fx3              0.655502       0.569175
                          3       1   14fx2y             0.655502       1.272714
                          3       1   14fx2z             0.655502       1.272714
                          3       1   14fxy2             0.655502       1.272714
                          3       1   14fxyz             0.655502       2.204405
                          3       1   14fxz2             0.655502       1.272714
                          3       1   14fy3              0.655502       0.569175
                          3       1   14fy2z             0.655502       1.272714
                          3       1   14fyz2             0.655502       1.272714
                          3       1   14fz3              0.655502       0.569175

                          4       1   11dx2              0.675950       0.829393
                          4       1   11dxy              0.675950       1.436551
                          4       1   11dxz              0.675950       1.436551
                          4       1   11dy2              0.675950       0.829393
                          4       1   11dyz              0.675950       1.436551
                          4       1   11dz2              0.675950       0.829393

                          5       1    2s                0.778512       0.590689

                          6       1   12dx2              0.872768       1.297128
                          6       1   12dxy              0.872768       2.246691
                          6       1   12dxz              0.872768       2.246691
                          6       1   12dy2              0.872768       1.297128
                          6       1   12dyz              0.872768       2.246691
                          6       1   12dz2              0.872768       1.297128

                          7       1    8px               1.053799       1.521905
                          7       1    8py               1.053799       1.521905
                          7       1    8pz               1.053799       1.521905

                          8       1   16gx4              1.337175       2.474302
                          8       1   16gx3y             1.337175       6.546389
                          8       1   16gx3z             1.337175       6.546389
                          8       1   16gx2y2            1.337175       8.451352
                          8       1   16gx2yz            1.337175      14.638170
                          8       1   16gx2z2            1.337175       8.451352
                          8       1   16gxy3             1.337175       6.546389
                          8       1   16gxy2z            1.337175      14.638170
                          8       1   16gxyz2            1.337175      14.638170
                          8       1   16gxz3             1.337175       6.546389
                          8       1   16gy4              1.337175       2.474302
                          8       1   16gy3z             1.337175       6.546389
                          8       1   16gy2z2            1.337175       8.451352
                          8       1   16gyz3             1.337175       6.546389
                          8       1   16gz4              1.337175       2.474302

                          9       1   15fx3              2.326735       9.843169
                          9       1   15fx2y             2.326735      22.009994
                          9       1   15fx2z             2.326735      22.009994
                          9       1   15fxy2             2.326735      22.009994
                          9       1   15fxyz             2.326735      38.122428
                          9       1   15fxz2             2.326735      22.009994
                          9       1   15fy3              2.326735       9.843169
                          9       1   15fy2z             2.326735      22.009994
                          9       1   15fyz2             2.326735      22.009994
                          9       1   15fz3              2.326735       9.843169

                         10       1    3s                2.407718       1.377572

                         11       1    9px               3.914583       7.848686
                         11       1    9py               3.914583       7.848686
                         11       1    9pz               3.914583       7.848686

                         12       1   13dx2              4.400587      22.006604
                         12       1   13dxy              4.400587      38.116556
                         12       1   13dxz              4.400587      38.116556
                         12       1   13dy2              4.400587      22.006604
                         12       1   13dyz              4.400587      38.116556
                         12       1   13dz2              4.400587      22.006604

                         13       1    4s                9.062002       3.722444

                         14       1   10px              20.698980      62.932688
                         14       1   10py              20.698980      62.932688
                         14       1   10pz              20.698980      62.932688

                         15       1    5s               31.580332       9.494511

                         16       1    6s              106.882494      23.691362

       Atomic covalent radius [Angstrom]:                                  0.750

       Atomic van der Waals radius [Angstrom]:                             1.550

     The atoms of this atomic kind are PAW atoms (GAPW):
       Hard Gaussian function radius:                                      1.512
       Rho0 radius:                                                        1.512
       Maximum GTO radius used for PAW projector construction:            24.566

     GAPW Soft Basis Set                                 aug-DZVP-MOLOPT-ae_soft

       Number of orbital shell sets:                                           2
       Number of orbital shells:                                              10
       Number of primitive Cartesian functions:                                6
       Number of Cartesian basis functions:                                   35
       Number of spherical basis functions:                                   30
       Norm type:                                                              2

       Normalised Cartesian orbitals:

                        Set   Shell   Orbital            Exponent    Coefficient

                          1       1    2s                0.060000      -0.096639
                                                         0.166384       0.037538
                                                         0.634073      -0.055669
                                                         2.325354       0.000000

                          1       2    3px               0.060000       0.000000
                                                         0.166384      -0.031930
                                                         0.634073      -0.492962
                                                         2.325354      -1.380142
                          1       2    3py               0.060000       0.000000
                                                         0.166384      -0.031930
                                                         0.634073      -0.492962
                                                         2.325354      -1.380142
                          1       2    3pz               0.060000       0.000000
                                                         0.166384      -0.031930
                                                         0.634073      -0.492962
                                                         2.325354      -1.380142

                          1       3    4px               0.060000       0.000000
                                                         0.166384       0.169694
                                                         0.634073      -0.220766
                                                         2.325354      -0.809234
                          1       3    4py               0.060000       0.000000
                                                         0.166384       0.169694
                                                         0.634073      -0.220766
                                                         2.325354      -0.809234
                          1       3    4pz               0.060000       0.000000
                                                         0.166384       0.169694
                                                         0.634073      -0.220766
                                                         2.325354      -0.809234

                          1       4    5px               0.060000       0.028594
                                                         0.166384       0.063224
                                                         0.634073      -0.046183
                                                         2.325354       0.000000
                          1       4    5py               0.060000       0.028594
                                                         0.166384       0.063224
                                                         0.634073      -0.046183
                                                         2.325354       0.000000
                          1       4    5pz               0.060000       0.028594
                                                         0.166384       0.063224
                                                         0.634073      -0.046183
                                                         2.325354       0.000000

                          1       5    4dx2              0.060000       0.000000
                                                         0.166384       0.019402
                                                         0.634073       0.555487
                                                         2.325354       1.255926
                          1       5    4dxy              0.060000       0.000000
                                                         0.166384       0.033606
                                                         0.634073       0.962132
                                                         2.325354       2.175327
                          1       5    4dxz              0.060000       0.000000
                                                         0.166384       0.033606
                                                         0.634073       0.962132
                                                         2.325354       2.175327
                          1       5    4dy2              0.060000       0.000000
                                                         0.166384       0.019402
                                                         0.634073       0.555487
                                                         2.325354       1.255926
                          1       5    4dyz              0.060000       0.000000
                                                         0.166384       0.033606
                                                         0.634073       0.962132
                                                         2.325354       2.175327
                          1       5    4dz2              0.060000       0.000000
                                                         0.166384       0.019402
                                                         0.634073       0.555487
                                                         2.325354       1.255926

                          1       6    5dx2              0.060000      -0.008089
                                                         0.166384      -0.027907
                                                         0.634073      -0.057221
                                                         2.325354       0.000000
                          1       6    5dxy              0.060000      -0.014011
                                                         0.166384      -0.048336
                                                         0.634073      -0.099109
                                                         2.325354       0.000000
                          1       6    5dxz              0.060000      -0.014011
                                                         0.166384      -0.048336
                                                         0.634073      -0.099109
                                                         2.325354       0.000000
                          1       6    5dy2              0.060000      -0.008089
                                                         0.166384      -0.027907
                                                         0.634073      -0.057221
                                                         2.325354       0.000000
                          1       6    5dyz              0.060000      -0.014011
                                                         0.166384      -0.048336
                                                         0.634073      -0.099109
                                                         2.325354       0.000000
                          1       6    5dz2              0.060000      -0.008089
                                                         0.166384      -0.027907
                                                         0.634073      -0.057221
                                                         2.325354       0.000000

                          1       7    5fx3              0.060000       0.000067
                                                         0.166384       0.012645
                                                         0.634073       0.328269
                                                         2.325354       1.687172
                          1       7    5fx2y             0.060000       0.000150
                                                         0.166384       0.028275
                                                         0.634073       0.734031
                                                         2.325354       3.772631
                          1       7    5fx2z             0.060000       0.000150
                                                         0.166384       0.028275
                                                         0.634073       0.734031
                                                         2.325354       3.772631
                          1       7    5fxy2             0.060000       0.000150
                                                         0.166384       0.028275
                                                         0.634073       0.734031
                                                         2.325354       3.772631
                          1       7    5fxyz             0.060000       0.000260
                                                         0.166384       0.048973
                                                         0.634073       1.271379
                                                         2.325354       6.534389
                          1       7    5fxz2             0.060000       0.000150
                                                         0.166384       0.028275
                                                         0.634073       0.734031
                                                         2.325354       3.772631
                          1       7    5fy3              0.060000       0.000067
                                                         0.166384       0.012645
                                                         0.634073       0.328269
                                                         2.325354       1.687172
                          1       7    5fy2z             0.060000       0.000150
                                                         0.166384       0.028275
                                                         0.634073       0.734031
                                                         2.325354       3.772631
                          1       7    5fyz2             0.060000       0.000150
                                                         0.166384       0.028275
                                                         0.634073       0.734031
                                                         2.325354       3.772631
                          1       7    5fz3              0.060000       0.000067
                                                         0.166384       0.012645
                                                         0.634073       0.328269
                                                         2.325354       1.687172

                          2       1    1s                0.191012      -0.002582
                                                         0.666629       0.012902

                          2       2    2s                0.191012       0.079194
                                                         0.666629       0.351708

                          2       3    3s                0.191012       0.300064
                                                         0.666629      -0.436823

     AE Potential information for                                            ALL

       Description:                                       All-electron potential
                                          Krack, Parrinello, PCCP 2, 2105 (2000)

       Gaussian exponent of the core charge distribution:               5.979100
       Electronic configuration (s p d ...):                           4   3   0

  4. Atomic kind: S                                     Number of atoms:       1

     Orbital Basis Set                                        aug-DZVP-MOLOPT-ae

       Number of orbital shell sets:                                           3
       Number of orbital shells:                                              12
       Number of primitive Cartesian functions:                               18
       Number of Cartesian basis functions:                                   39
       Number of spherical basis functions:                                   34
       Norm type:                                                              2

       Normalised Cartesian orbitals:

                        Set   Shell   Orbital            Exponent    Coefficient

                          1       1    1s                0.070000       0.160238
                                                         0.132026      -0.106319
                                                         0.461903      -0.064590
                                                         2.043261       0.000000
                                                         6.030247       0.000000
                                                        18.817576       0.000000
                                                        61.243244       0.000000
                                                       262.037180       0.000000

                          1       2    2px               0.070000       0.000000
                                                         0.132026      -0.006041
                                                         0.461903       0.020884
                                                         2.043261      -1.163342
                                                         6.030247      -7.192527
                                                        18.817576     -14.902856
                                                        61.243244     -16.017959
                                                       262.037180     -14.606063
                          1       2    2py               0.070000       0.000000
                                                         0.132026      -0.006041
                                                         0.461903       0.020884
                                                         2.043261      -1.163342
                                                         6.030247      -7.192527
                                                        18.817576     -14.902856
                                                        61.243244     -16.017959
                                                       262.037180     -14.606063
                          1       2    2pz               0.070000       0.000000
                                                         0.132026      -0.006041
                                                         0.461903       0.020884
                                                         2.043261      -1.163342
                                                         6.030247      -7.192527
                                                        18.817576     -14.902856
                                                        61.243244     -16.017959
                                                       262.037180     -14.606063

                          1       3    3px               0.070000       0.000000
                                                         0.132026       0.013372
                                                         0.461903       0.460806
                                                         2.043261       0.527227
                                                         6.030247      -0.800963
                                                        18.817576       1.692650
                                                        61.243244      -2.127051
                                                       262.037180       6.627568
                          1       3    3py               0.070000       0.000000
                                                         0.132026       0.013372
                                                         0.461903       0.460806
                                                         2.043261       0.527227
                                                         6.030247      -0.800963
                                                        18.817576       1.692650
                                                        61.243244      -2.127051
                                                       262.037180       6.627568
                          1       3    3pz               0.070000       0.000000
                                                         0.132026       0.013372
                                                         0.461903       0.460806
                                                         2.043261       0.527227
                                                         6.030247      -0.800963
                                                        18.817576       1.692650
                                                        61.243244      -2.127051
                                                       262.037180       6.627568

                          1       4    4px               0.070000       0.000000
                                                         0.132026       0.122461
                                                         0.461903      -0.074630
                                                         2.043261      -0.266435
                                                         6.030247      -0.600117
                                                        18.817576      -2.837173
                                                        61.243244       0.679283
                                                       262.037180      -9.723876
                          1       4    4py               0.070000       0.000000
                                                         0.132026       0.122461
                                                         0.461903      -0.074630
                                                         2.043261      -0.266435
                                                         6.030247      -0.600117
                                                        18.817576      -2.837173
                                                        61.243244       0.679283
                                                       262.037180      -9.723876
                          1       4    4pz               0.070000       0.000000
                                                         0.132026       0.122461
                                                         0.461903      -0.074630
                                                         2.043261      -0.266435
                                                         6.030247      -0.600117
                                                        18.817576      -2.837173
                                                        61.243244       0.679283
                                                       262.037180      -9.723876

                          1       5    5px               0.070000      -0.010761
                                                         0.132026      -0.065366
                                                         0.461903       0.662552
                                                         2.043261       0.000000
                                                         6.030247       0.000000
                                                        18.817576       0.000000
                                                        61.243244       0.000000
                                                       262.037180       0.000000
                          1       5    5py               0.070000      -0.010761
                                                         0.132026      -0.065366
                                                         0.461903       0.662552
                                                         2.043261       0.000000
                                                         6.030247       0.000000
                                                        18.817576       0.000000
                                                        61.243244       0.000000
                                                       262.037180       0.000000
                          1       5    5pz               0.070000      -0.010761
                                                         0.132026      -0.065366
                                                         0.461903       0.662552
                                                         2.043261       0.000000
                                                         6.030247       0.000000
                                                        18.817576       0.000000
                                                        61.243244       0.000000
                                                       262.037180       0.000000

                          1       6    3dx2              0.070000       0.000000
                                                         0.132026       0.010167
                                                         0.461903       0.321348
                                                         2.043261       1.422467
                                                         6.030247      -0.691425
                                                        18.817576       4.642944
                                                        61.243244     -11.887587
                                                       262.037180      63.210336
                          1       6    3dxy              0.070000       0.000000
                                                         0.132026       0.017609
                                                         0.461903       0.556591
                                                         2.043261       2.463785
                                                         6.030247      -1.197583
                                                        18.817576       8.041814
                                                        61.243244     -20.589904
                                                       262.037180     109.483513
                          1       6    3dxz              0.070000       0.000000
                                                         0.132026       0.017609
                                                         0.461903       0.556591
                                                         2.043261       2.463785
                                                         6.030247      -1.197583
                                                        18.817576       8.041814
                                                        61.243244     -20.589904
                                                       262.037180     109.483513
                          1       6    3dy2              0.070000       0.000000
                                                         0.132026       0.010167
                                                         0.461903       0.321348
                                                         2.043261       1.422467
                                                         6.030247      -0.691425
                                                        18.817576       4.642944
                                                        61.243244     -11.887587
                                                       262.037180      63.210336
                          1       6    3dyz              0.070000       0.000000
                                                         0.132026       0.017609
                                                         0.461903       0.556591
                                                         2.043261       2.463785
                                                         6.030247      -1.197583
                                                        18.817576       8.041814
                                                        61.243244     -20.589904
                                                       262.037180     109.483513
                          1       6    3dz2              0.070000       0.000000
                                                         0.132026       0.010167
                                                         0.461903       0.321348
                                                         2.043261       1.422467
                                                         6.030247      -0.691425
                                                        18.817576       4.642944
                                                        61.243244     -11.887587
                                                       262.037180      63.210336

                          1       7    4dx2              0.070000       0.004993
                                                         0.132026       0.031835
                                                         0.461903       0.041246
                                                         2.043261       0.000000
                                                         6.030247       0.000000
                                                        18.817576       0.000000
                                                        61.243244       0.000000
                                                       262.037180       0.000000
                          1       7    4dxy              0.070000       0.008648
                                                         0.132026       0.055140
                                                         0.461903       0.071440
                                                         2.043261       0.000000
                                                         6.030247       0.000000
                                                        18.817576       0.000000
                                                        61.243244       0.000000
                                                       262.037180       0.000000
                          1       7    4dxz              0.070000       0.008648
                                                         0.132026       0.055140
                                                         0.461903       0.071440
                                                         2.043261       0.000000
                                                         6.030247       0.000000
                                                        18.817576       0.000000
                                                        61.243244       0.000000
                                                       262.037180       0.000000
                          1       7    4dy2              0.070000       0.004993
                                                         0.132026       0.031835
                                                         0.461903       0.041246
                                                         2.043261       0.000000
                                                         6.030247       0.000000
                                                        18.817576       0.000000
                                                        61.243244       0.000000
                                                       262.037180       0.000000
                          1       7    4dyz              0.070000       0.008648
                                                         0.132026       0.055140
                                                         0.461903       0.071440
                                                         2.043261       0.000000
                                                         6.030247       0.000000
                                                        18.817576       0.000000
                                                        61.243244       0.000000
                                                       262.037180       0.000000
                          1       7    4dz2              0.070000       0.004993
                                                         0.132026       0.031835
                                                         0.461903       0.041246
                                                         2.043261       0.000000
                                                         6.030247       0.000000
                                                        18.817576       0.000000
                                                        61.243244       0.000000
                                                       262.037180       0.000000

                          1       8    4fx3              0.070000       0.001179
                                                         0.132026       0.004915
                                                         0.461903       0.162520
                                                         2.043261       0.000000
                                                         6.030247       0.000000
                                                        18.817576       0.000000
                                                        61.243244       0.000000
                                                       262.037180       0.000000
                          1       8    4fx2y             0.070000       0.002636
                                                         0.132026       0.010991
                                                         0.461903       0.363406
                                                         2.043261       0.000000
                                                         6.030247       0.000000
                                                        18.817576       0.000000
                                                        61.243244       0.000000
                                                       262.037180       0.000000
                          1       8    4fx2z             0.070000       0.002636
                                                         0.132026       0.010991
                                                         0.461903       0.363406
                                                         2.043261       0.000000
                                                         6.030247       0.000000
                                                        18.817576       0.000000
                                                        61.243244       0.000000
                                                       262.037180       0.000000
                          1       8    4fxy2             0.070000       0.002636
                                                         0.132026       0.010991
                                                         0.461903       0.363406
                                                         2.043261       0.000000
                                                         6.030247       0.000000
                                                        18.817576       0.000000
                                                        61.243244       0.000000
                                                       262.037180       0.000000
                          1       8    4fxyz             0.070000       0.004567
                                                         0.132026       0.019037
                                                         0.461903       0.629438
                                                         2.043261       0.000000
                                                         6.030247       0.000000
                                                        18.817576       0.000000
                                                        61.243244       0.000000
                                                       262.037180       0.000000
                          1       8    4fxz2             0.070000       0.002636
                                                         0.132026       0.010991
                                                         0.461903       0.363406
                                                         2.043261       0.000000
                                                         6.030247       0.000000
                                                        18.817576       0.000000
                                                        61.243244       0.000000
                                                       262.037180       0.000000
                          1       8    4fy3              0.070000       0.001179
                                                         0.132026       0.004915
                                                         0.461903       0.162520
                                                         2.043261       0.000000
                                                         6.030247       0.000000
                                                        18.817576       0.000000
                                                        61.243244       0.000000
                                                       262.037180       0.000000
                          1       8    4fy2z             0.070000       0.002636
                                                         0.132026       0.010991
                                                         0.461903       0.363406
                                                         2.043261       0.000000
                                                         6.030247       0.000000
                                                        18.817576       0.000000
                                                        61.243244       0.000000
                                                       262.037180       0.000000
                          1       8    4fyz2             0.070000       0.002636
                                                         0.132026       0.010991
                                                         0.461903       0.363406
                                                         2.043261       0.000000
                                                         6.030247       0.000000
                                                        18.817576       0.000000
                                                        61.243244       0.000000
                                                       262.037180       0.000000
                          1       8    4fz3              0.070000       0.001179
                                                         0.132026       0.004915
                                                         0.461903       0.162520
                                                         2.043261       0.000000
                                                         6.030247       0.000000
                                                        18.817576       0.000000
                                                        61.243244       0.000000
                                                       262.037180       0.000000

                          2       1    1s               45.482850      -1.175639
                                                         4.876333       1.431452
                                                         1.864066       0.572778
                                                         0.430250      -0.034078
                                                         0.152872       0.004775

                          2       2    2s               45.482850      -0.314552
                                                         4.876333       0.236776
                                                         1.864066      -0.009167
                                                         0.430250       0.282804
                                                         0.152872       0.044200

                          2       3    3s               45.482850       0.143312
                                                         4.876333      -0.094249
                                                         1.864066      -0.118759
                                                         0.430250      -0.172982
                                                         0.152872       0.236834

                          3       1    1s             9184.968607      -3.488008
                                                      1381.514008      -6.811623
                                                       313.892819      -9.517673
                                                        87.514579     -10.059465
                                                        25.931396      -3.470689

     RI Auxiliary Basis Set             RI_aug-DZVP-MOLOPT-ae_N_RI_073_s_p_d_f_g

       Number of orbital shell sets:                                          21
       Number of orbital shells:                                              21
       Number of primitive Cartesian functions:                               21
       Number of Cartesian basis functions:                                   90
       Number of spherical basis functions:                                   73
       Norm type:                                                              2

       Normalised Cartesian orbitals:

                        Set   Shell   Orbital            Exponent    Coefficient

                          1       1    1s                0.290392       0.281935

                          2       1    8px               0.317106       0.339192
                          2       1    8py               0.317106       0.339192
                          2       1    8pz               0.317106       0.339192

                          3       1   19fx3              0.361501       0.149177
                          3       1   19fx2y             0.361501       0.333569
                          3       1   19fx2z             0.361501       0.333569
                          3       1   19fxy2             0.361501       0.333569
                          3       1   19fxyz             0.361501       0.577759
                          3       1   19fxz2             0.361501       0.333569
                          3       1   19fy3              0.361501       0.149177
                          3       1   19fy2z             0.361501       0.333569
                          3       1   19fyz2             0.361501       0.333569
                          3       1   19fz3              0.361501       0.149177

                          4       1   14dx2              0.409918       0.345644
                          4       1   14dxy              0.409918       0.598673
                          4       1   14dxz              0.409918       0.598673
                          4       1   14dy2              0.409918       0.345644
                          4       1   14dyz              0.409918       0.598673
                          4       1   14dz2              0.409918       0.345644

                          5       1    2s                0.463479       0.400343

                          6       1   21gx4              0.549723       0.214700
                          6       1   21gx3y             0.549723       0.568042
                          6       1   21gx3z             0.549723       0.568042
                          6       1   21gx2y2            0.549723       0.733339
                          6       1   21gx2yz            0.549723       1.270180
                          6       1   21gx2z2            0.549723       0.733339
                          6       1   21gxy3             0.549723       0.568042
                          6       1   21gxy2z            0.549723       1.270180
                          6       1   21gxyz2            0.549723       1.270180
                          6       1   21gxz3             0.549723       0.568042
                          6       1   21gy4              0.549723       0.214700
                          6       1   21gy3z             0.549723       0.568042
                          6       1   21gy2z2            0.549723       0.733339
                          6       1   21gyz3             0.549723       0.568042
                          6       1   21gz4              0.549723       0.214700

                          7       1    9px               0.561683       0.693113
                          7       1    9py               0.561683       0.693113
                          7       1    9pz               0.561683       0.693113

                          8       1   15dx2              0.712695       0.909894
                          8       1   15dxy              0.712695       1.575983
                          8       1   15dxz              0.712695       1.575983
                          8       1   15dy2              0.712695       0.909894
                          8       1   15dyz              0.712695       1.575983
                          8       1   15dz2              0.712695       0.909894

                          9       1   20fx3              0.950953       1.314656
                          9       1   20fx2y             0.950953       2.939661
                          9       1   20fx2z             0.950953       2.939661
                          9       1   20fxy2             0.950953       2.939661
                          9       1   20fxyz             0.950953       5.091642
                          9       1   20fxz2             0.950953       2.939661
                          9       1   20fy3              0.950953       1.314656
                          9       1   20fy2z             0.950953       2.939661
                          9       1   20fyz2             0.950953       2.939661
                          9       1   20fz3              0.950953       1.314656

                         10       1    3s                1.539165       0.984859

                         11       1   10px               1.859580       3.095342
                         11       1   10py               1.859580       3.095342
                         11       1   10pz               1.859580       3.095342

                         12       1   16dx2              2.381044       7.511946
                         12       1   16dxy              2.381044      13.011071
                         12       1   16dxz              2.381044      13.011071
                         12       1   16dy2              2.381044       7.511946
                         12       1   16dyz              2.381044      13.011071
                         12       1   16dz2              2.381044       7.511946

                         13       1    4s                6.283281       2.828459

                         14       1   11px               7.483905      17.644138
                         14       1   11py               7.483905      17.644138
                         14       1   11pz               7.483905      17.644138

                         15       1   17dx2              8.840758      74.604682
                         15       1   17dxy              8.840758     129.219100
                         15       1   17dxz              8.840758     129.219100
                         15       1   17dy2              8.840758      74.604682
                         15       1   17dyz              8.840758     129.219100
                         15       1   17dz2              8.840758      74.604682

                         16       1    5s               25.578292       8.106134

                         17       1   12px              28.559794      94.109601
                         17       1   12py              28.559794      94.109601
                         17       1   12pz              28.559794      94.109601

                         18       1   18dx2             31.834018     702.214056
                         18       1   18dxy             31.834018    1216.270423
                         18       1   18dxz             31.834018    1216.270423
                         18       1   18dy2             31.834018     702.214056
                         18       1   18dyz             31.834018    1216.270423
                         18       1   18dz2             31.834018     702.214056

                         19       1    6s               96.218093      21.895388

                         20       1   13px             100.987823     456.327194
                         20       1   13py             100.987823     456.327194
                         20       1   13pz             100.987823     456.327194

                         21       1    7s              352.070794      57.927207

       Atomic covalent radius [Angstrom]:                                  1.020

       Atomic van der Waals radius [Angstrom]:                             1.800

     The atoms of this atomic kind are PAW atoms (GAPW):
       Hard Gaussian function radius:                                      1.512
       Rho0 radius:                                                        1.512
       Maximum GTO radius used for PAW projector construction:            24.566

     GAPW Soft Basis Set                                 aug-DZVP-MOLOPT-ae_soft

       Number of orbital shell sets:                                           3
       Number of orbital shells:                                              12
       Number of primitive Cartesian functions:                                7
       Number of Cartesian basis functions:                                   39
       Number of spherical basis functions:                                   34
       Norm type:                                                              2

       Normalised Cartesian orbitals:

                        Set   Shell   Orbital            Exponent    Coefficient

                          1       1    1s                0.070000       0.160238
                                                         0.132026      -0.106319
                                                         0.461903      -0.064590
                                                         2.043261       0.000000

                          1       2    2px               0.070000       0.000000
                                                         0.132026      -0.006041
                                                         0.461903       0.020884
                                                         2.043261      -1.163342
                          1       2    2py               0.070000       0.000000
                                                         0.132026      -0.006041
                                                         0.461903       0.020884
                                                         2.043261      -1.163342
                          1       2    2pz               0.070000       0.000000
                                                         0.132026      -0.006041
                                                         0.461903       0.020884
                                                         2.043261      -1.163342

                          1       3    3px               0.070000       0.000000
                                                         0.132026       0.013372
                                                         0.461903       0.460806
                                                         2.043261       0.527227
                          1       3    3py               0.070000       0.000000
                                                         0.132026       0.013372
                                                         0.461903       0.460806
                                                         2.043261       0.527227
                          1       3    3pz               0.070000       0.000000
                                                         0.132026       0.013372
                                                         0.461903       0.460806
                                                         2.043261       0.527227

                          1       4    4px               0.070000       0.000000
                                                         0.132026       0.122461
                                                         0.461903      -0.074630
                                                         2.043261      -0.266435
                          1       4    4py               0.070000       0.000000
                                                         0.132026       0.122461
                                                         0.461903      -0.074630
                                                         2.043261      -0.266435
                          1       4    4pz               0.070000       0.000000
                                                         0.132026       0.122461
                                                         0.461903      -0.074630
                                                         2.043261      -0.266435

                          1       5    5px               0.070000      -0.010761
                                                         0.132026      -0.065366
                                                         0.461903       0.662552
                                                         2.043261       0.000000
                          1       5    5py               0.070000      -0.010761
                                                         0.132026      -0.065366
                                                         0.461903       0.662552
                                                         2.043261       0.000000
                          1       5    5pz               0.070000      -0.010761
                                                         0.132026      -0.065366
                                                         0.461903       0.662552
                                                         2.043261       0.000000

                          1       6    3dx2              0.070000       0.000000
                                                         0.132026       0.010167
                                                         0.461903       0.321348
                                                         2.043261       1.422467
                          1       6    3dxy              0.070000       0.000000
                                                         0.132026       0.017609
                                                         0.461903       0.556591
                                                         2.043261       2.463785
                          1       6    3dxz              0.070000       0.000000
                                                         0.132026       0.017609
                                                         0.461903       0.556591
                                                         2.043261       2.463785
                          1       6    3dy2              0.070000       0.000000
                                                         0.132026       0.010167
                                                         0.461903       0.321348
                                                         2.043261       1.422467
                          1       6    3dyz              0.070000       0.000000
                                                         0.132026       0.017609
                                                         0.461903       0.556591
                                                         2.043261       2.463785
                          1       6    3dz2              0.070000       0.000000
                                                         0.132026       0.010167
                                                         0.461903       0.321348
                                                         2.043261       1.422467

                          1       7    4dx2              0.070000       0.004993
                                                         0.132026       0.031835
                                                         0.461903       0.041246
                                                         2.043261       0.000000
                          1       7    4dxy              0.070000       0.008648
                                                         0.132026       0.055140
                                                         0.461903       0.071440
                                                         2.043261       0.000000
                          1       7    4dxz              0.070000       0.008648
                                                         0.132026       0.055140
                                                         0.461903       0.071440
                                                         2.043261       0.000000
                          1       7    4dy2              0.070000       0.004993
                                                         0.132026       0.031835
                                                         0.461903       0.041246
                                                         2.043261       0.000000
                          1       7    4dyz              0.070000       0.008648
                                                         0.132026       0.055140
                                                         0.461903       0.071440
                                                         2.043261       0.000000
                          1       7    4dz2              0.070000       0.004993
                                                         0.132026       0.031835
                                                         0.461903       0.041246
                                                         2.043261       0.000000

                          1       8    4fx3              0.070000       0.001179
                                                         0.132026       0.004915
                                                         0.461903       0.162520
                                                         2.043261       0.000000
                          1       8    4fx2y             0.070000       0.002636
                                                         0.132026       0.010991
                                                         0.461903       0.363406
                                                         2.043261       0.000000
                          1       8    4fx2z             0.070000       0.002636
                                                         0.132026       0.010991
                                                         0.461903       0.363406
                                                         2.043261       0.000000
                          1       8    4fxy2             0.070000       0.002636
                                                         0.132026       0.010991
                                                         0.461903       0.363406
                                                         2.043261       0.000000
                          1       8    4fxyz             0.070000       0.004567
                                                         0.132026       0.019037
                                                         0.461903       0.629438
                                                         2.043261       0.000000
                          1       8    4fxz2             0.070000       0.002636
                                                         0.132026       0.010991
                                                         0.461903       0.363406
                                                         2.043261       0.000000
                          1       8    4fy3              0.070000       0.001179
                                                         0.132026       0.004915
                                                         0.461903       0.162520
                                                         2.043261       0.000000
                          1       8    4fy2z             0.070000       0.002636
                                                         0.132026       0.010991
                                                         0.461903       0.363406
                                                         2.043261       0.000000
                          1       8    4fyz2             0.070000       0.002636
                                                         0.132026       0.010991
                                                         0.461903       0.363406
                                                         2.043261       0.000000
                          1       8    4fz3              0.070000       0.001179
                                                         0.132026       0.004915
                                                         0.461903       0.162520
                                                         2.043261       0.000000

                          2       1    1s                1.864066       0.572778
                                                         0.430250      -0.034078
                                                         0.152872       0.004775

                          2       2    2s                1.864066      -0.009167
                                                         0.430250       0.282804
                                                         0.152872       0.044200

                          2       3    3s                1.864066      -0.118759
                                                         0.430250      -0.172982
                                                         0.152872       0.236834

                          3       1    1s         

     AE Potential information for                                            ALL

       Description:                                       All-electron potential
                                          Krack, Parrinello, PCCP 2, 2105 (2000)

       Gaussian exponent of the core charge distribution:               2.834467
       Electronic configuration (s p d ...):                           6  10   0


 MOLECULE KIND INFORMATION


 All atoms are their own molecule, skipping detailed information


 TOTAL NUMBERS AND MAXIMUM NUMBERS

  Total number of            - Atomic kinds:                                   4
                             - Atoms:                                         12
                             - Shell sets:                                    29
                             - Shells:                                       130
                             - Primitive Cartesian functions:                179
                             - Cartesian basis functions:                    440
                             - Spherical basis functions:                    380

  Maximum angular momentum of the orbital basis functions:                     3


 MODULE QUICKSTEP: ATOMIC COORDINATES IN ANGSTROM

   Atom Kind Element         X             Y             Z       Z(eff)     Mass
      1    1 Cl   17     12.722908     13.527055     15.043718  17.0000  35.4530
      2    1 Cl   17     12.722908     16.472945     15.043718  17.0000  35.4530
      3    2 C     6     14.627412     15.000000     16.347697   6.0000  12.0107
      4    2 C     6     13.745594     15.000000     15.095639   6.0000  12.0107
      5    2 C     6     14.777820     15.000000     14.004658   6.0000  12.0107
      6    3 N     7     14.724545     15.000000     12.661417   7.0000  14.0067
      7    3 N     7     15.873703     15.000000     12.092298   7.0000  14.0067
      8    1 Cl   17     13.973636     15.000000     17.907702  17.0000  35.4530
      9    4 S    16     17.173419     15.000000     13.299540  16.0000  32.0650
     10    1 Cl   17     17.277092     15.000000     17.069250  17.0000  35.4530
     11    2 C     6     16.051472     15.000000     14.555051   6.0000  12.0107
     12    2 C     6     15.946268     15.000000     16.006795   6.0000  12.0107



 SCF PARAMETERS         Density guess:                                    ATOMIC
                        --------------------------------------------------------
                        max_scf:                                             500
                        max_scf_history:                                       0
                        max_diis:                                              4
                        --------------------------------------------------------
                        eps_scf:                                        1.00E-06
                        eps_scf_history:                                0.00E+00
                        eps_diis:                                       1.00E-01
                        eps_eigval:                                     1.00E-05
                        --------------------------------------------------------
                        level_shift [a.u.]:                             0.000000
                        added MOs                                       316    0
                        --------------------------------------------------------
                        Mixing method:                            BROYDEN_MIXING
                                                charge density mixing in g-space
                        --------------------------------------------------------
                        No outer SCF

 PW_GRID| Information for grid number                                          1
 PW_GRID| Grid distributed over                                   192 processors
 PW_GRID| Real space group dimensions                                   192    1
 PW_GRID| the grid is blocked:                                                NO
 PW_GRID| Cutoff [a.u.]                                                    250.0
 PW_GRID| spherical cutoff:                                                   NO
 PW_GRID|   Bounds   1           -202     202                Points:         405
 PW_GRID|   Bounds   2           -202     202                Points:         405
 PW_GRID|   Bounds   3           -202     202                Points:         405
 PW_GRID| Volume element (a.u.^3)  0.2743E-02     Volume (a.u.^3)    182205.0337
 PW_GRID| Grid span                                                    FULLSPACE
 PW_GRID|   Distribution                         Average         Max         Min
 PW_GRID|   G-Vectors                           345990.2      346275      345870
 PW_GRID|   G-Rays                                 854.3         855         854
 PW_GRID|   Real Space Points                   345990.2      492075      328050

 PW_GRID| Information for grid number                                          2
 PW_GRID| Number of the reference grid                                         1
 PW_GRID| Grid distributed over                                   192 processors
 PW_GRID| Real space group dimensions                                   192    1
 PW_GRID| the grid is blocked:                                                NO
 PW_GRID| Cutoff [a.u.]                                                     83.3
 PW_GRID| spherical cutoff:                                                   NO
 PW_GRID|   Bounds   1           -120     119                Points:         240
 PW_GRID|   Bounds   2           -120     119                Points:         240
 PW_GRID|   Bounds   3           -120     119                Points:         240
 PW_GRID| Volume element (a.u.^3)  0.1318E-01     Volume (a.u.^3)    182205.0337
 PW_GRID| Grid span                                                    FULLSPACE
 PW_GRID|   Distribution                         Average         Max         Min
 PW_GRID|   G-Vectors                            72000.0       72240       71760
 PW_GRID|   G-Rays                                 300.0         301         299
 PW_GRID|   Real Space Points                    72000.0      115200       57600

 PW_GRID| Information for grid number                                          3
 PW_GRID| Number of the reference grid                                         1
 PW_GRID| Grid distributed over                                   192 processors
 PW_GRID| Real space group dimensions                                    12   16
 PW_GRID| the grid is blocked:                                                NO
 PW_GRID| Cutoff [a.u.]                                                     27.8
 PW_GRID| spherical cutoff:                                                   NO
 PW_GRID|   Bounds   1            -67      67                Points:         135
 PW_GRID|   Bounds   2            -67      67                Points:         135
 PW_GRID|   Bounds   3            -67      67                Points:         135
 PW_GRID| Volume element (a.u.^3)  0.7406E-01     Volume (a.u.^3)    182205.0337
 PW_GRID| Grid span                                                    FULLSPACE
 PW_GRID|   Distribution                         Average         Max         Min
 PW_GRID|   G-Vectors                            12814.5       12960       12690
 PW_GRID|   G-Rays                                  94.9          96          94
 PW_GRID|   Real Space Points                    12814.5       14580       11880

 PW_GRID| Information for grid number                                          4
 PW_GRID| Number of the reference grid                                         1
 PW_GRID| Grid distributed over                                   192 processors
 PW_GRID| Real space group dimensions                                    12   16
 PW_GRID| the grid is blocked:                                                NO
 PW_GRID| Cutoff [a.u.]                                                      9.3
 PW_GRID| spherical cutoff:                                                   NO
 PW_GRID|   Bounds   1            -40      39                Points:          80
 PW_GRID|   Bounds   2            -40      39                Points:          80
 PW_GRID|   Bounds   3            -40      39                Points:          80
 PW_GRID| Volume element (a.u.^3)  0.3559         Volume (a.u.^3)    182205.0337
 PW_GRID| Grid span                                                    FULLSPACE
 PW_GRID|   Distribution                         Average         Max         Min
 PW_GRID|   G-Vectors                             2666.7        2800        2560
 PW_GRID|   G-Rays                                  33.3          35          32
 PW_GRID|   Real Space Points                     2666.7        2800        2400

 POISSON| Solver                                                         WAVELET
 POISSON| Wavelet| Scaling function                                           40
 POISSON| Periodicity                                                       NONE

 RS_GRID| Information for grid number                                          1
 RS_GRID|   Bounds   1           -202     202                Points:         405
 RS_GRID|   Bounds   2           -202     202                Points:         405
 RS_GRID|   Bounds   3           -202     202                Points:         405
 RS_GRID| Real space distribution over                                  4 groups
 RS_GRID| Real space distribution along direction                              1
 RS_GRID| Border size                                                         35
 RS_GRID| Real space distribution over                                  6 groups
 RS_GRID| Real space distribution along direction                              2
 RS_GRID| Border size                                                         35
 RS_GRID| Real space distribution over                                  8 groups
 RS_GRID| Real space distribution along direction                              3
 RS_GRID| Border size                                                         35
 RS_GRID|   Distribution                         Average         Max         Min
 RS_GRID|   Planes                                 171.2         172         171
 RS_GRID|   Distribution                         Average         Max         Min
 RS_GRID|   Planes                                 137.5         138         137
 RS_GRID|   Distribution                         Average         Max         Min
 RS_GRID|   Planes                                 120.6         121         120

 RS_GRID| Information for grid number                                          2
 RS_GRID|   Bounds   1           -120     119                Points:         240
 RS_GRID|   Bounds   2           -120     119                Points:         240
 RS_GRID|   Bounds   3           -120     119                Points:         240
 RS_GRID| Real space distribution over                                  4 groups
 RS_GRID| Real space distribution along direction                              1
 RS_GRID| Border size                                                         39
 RS_GRID| Real space distribution over                                  6 groups
 RS_GRID| Real space distribution along direction                              2
 RS_GRID| Border size                                                         39
 RS_GRID| Real space distribution over                                  8 groups
 RS_GRID| Real space distribution along direction                              3
 RS_GRID| Border size                                                         39
 RS_GRID|   Distribution                         Average         Max         Min
 RS_GRID|   Planes                                 138.0         138         138
 RS_GRID|   Distribution                         Average         Max         Min
 RS_GRID|   Planes                                 118.0         118         118
 RS_GRID|   Distribution                         Average         Max         Min
 RS_GRID|   Planes                                 108.0         108         108

 RS_GRID| Information for grid number                                          3
 RS_GRID|   Bounds   1            -67      67                Points:         135
 RS_GRID|   Bounds   2            -67      67                Points:         135
 RS_GRID|   Bounds   3            -67      67                Points:         135
 RS_GRID| Real space fully replicated
 RS_GRID| Group size                                                           1

 RS_GRID| Information for grid number                                          4
 RS_GRID|   Bounds   1            -40      39                Points:          80
 RS_GRID|   Bounds   2            -40      39                Points:          80
 RS_GRID|   Bounds   3            -40      39                Points:          80
 RS_GRID| Real space fully replicated
 RS_GRID| Group size                                                           1

  HFX_INFO| Replica ID:                                                        1
  HFX_INFO| FRACTION:                                               0.2500000000
  HFX_INFO| Interaction Potential:                                       COULOMB
  HFX_INFO| EPS_SCHWARZ:                                                 1.0E-10
  HFX_INFO| EPS_SCHWARZ_FORCES                                           1.0E-08
  HFX_INFO| EPS_STORAGE_SCALING:                                         1.0E+00
  HFX_INFO| NBINS:                                                            64
  HFX_INFO| BLOCK_SIZE:                                                        1
  HFX_INFO| Number of periodic shells considered:                           NONE
  HFX_INFO| Number of periodic cells considered:                            NONE


 OVERLAP MATRIX CONDITION NUMBER
 1-Norm Condition Number (Estimate)
   CN : |A|*|A^-1|:  2.842E+001 *  3.398E+004   = 9.659E+005  Log(1-CN):  5.9849
 1-Norm and 2-Norm Condition Numbers using Diagonalization
   CN : |A|*|A^-1|:  2.842E+001 *  3.712E+004   = 1.055E+006  Log(1-CN):  6.0233
   CN : max/min ev:  9.453E+000 /  5.867E-005   = 1.611E+005  Log(2-CN):  5.2071

 Extrapolation method: initial_guess

 Atomic guess: The first density matrix is obtained in terms of atomic orbitals
               and electronic configurations assigned to each atomic kind

 Guess for atomic kind: Cl

 Electronic structure
    Total number of core electrons                                          0.00
    Total number of valence electrons                                      17.00
    Total number of electrons                                              17.00
    Multiplicity                                                   not specified
    S      2.00  2.00  2.00
    P      6.00  5.00


 *******************************************************************************
                  Iteration          Convergence                     Energy [au]
 *******************************************************************************
                          1        0.517392                    -458.455859051752
                          2        0.243810                    -458.464690531367
                          3        0.671487E-01                -458.478698615368
                          4        0.145303E-02                -458.479677096186
                          5        0.218953E-04                -458.479677505587
                          6        0.497273E-06                -458.479677505696

 Energy components [Hartree]           Total Energy ::         -458.479677505696
                                        Band Energy ::         -264.702614025861
                                     Kinetic Energy ::          457.817894151359
                                   Potential Energy ::         -916.297571657055
                                      Virial (-V/T) ::            2.001445516575
                                        Core Energy ::         -634.218968290548
                                          XC Energy ::          -26.601809038855
                                     Coulomb Energy ::          202.341099823707

 Orbital energies  State     L     Occupation   Energy[a.u.]          Energy[eV]

                       1     0          2.000    -100.351583        -2730.705436
                       2     0          2.000      -9.211096         -250.646660
                       3     0          2.000      -0.768248          -20.905079

                       1     1          6.000      -7.068224         -192.336158
                       2     1          5.000      -0.326284           -8.878629


 Total Electron Density at R=0:                                      2902.234641

 Guess for atomic kind: C

 Electronic structure
    Total number of core electrons                                          0.00
    Total number of valence electrons                                       6.00
    Total number of electrons                                               6.00
    Multiplicity                                                   not specified
    S      2.00  2.00
    P      2.00


 *******************************************************************************
                  Iteration          Convergence                     Energy [au]
 *******************************************************************************
                          1        0.133902                     -37.363061759844
                          2        0.102325                     -37.368472442707
                          3        0.860737E-03                 -37.376215693871
                          4        0.849047E-04                 -37.376216293501
                          5        0.219397E-06                 -37.376216298714

 Energy components [Hartree]           Total Energy ::          -37.376216298714
                                        Band Energy ::          -21.245708131867
                                     Kinetic Energy ::           37.464666877769
                                   Potential Energy ::          -74.840883176484
                                      Virial (-V/T) ::            1.997639093407
                                        Core Energy ::          -50.271057779086
                                          XC Energy ::           -4.736056292831
                                     Coulomb Energy ::           17.630897773203

 Orbital energies  State     L     Occupation   Energy[a.u.]          Energy[eV]

                       1     0          2.000      -9.941022         -270.508975
                       2     0          2.000      -0.490185          -13.338601

                       1     1          2.000      -0.191647           -5.214984


 Total Electron Density at R=0:                                       116.283880

 Guess for atomic kind: N

 Electronic structure
    Total number of core electrons                                          0.00
    Total number of valence electrons                                       7.00
    Total number of electrons                                               7.00
    Multiplicity                                                   not specified
    S      2.00  2.00
    P      3.00


 *******************************************************************************
                  Iteration          Convergence                     Energy [au]
 *******************************************************************************
                          1        0.369390                     -53.855844969821
                          2        0.273078                     -53.870170065147
                          3        0.611788E-02                 -53.916370559561
                          4        0.258022E-03                 -53.916388709621
                          5        0.100264E-04                 -53.916388753242
                          6        0.664221E-07                 -53.916388753301

 Energy components [Hartree]           Total Energy ::          -53.916388753301
                                        Band Energy ::          -30.277671893433
                                     Kinetic Energy ::           53.943449639882
                                   Potential Energy ::         -107.859838393183
                                      Virial (-V/T) ::            1.999498347125
                                        Core Energy ::          -73.381511064535
                                          XC Energy ::           -6.114835262346
                                     Coulomb Energy ::           25.579957573581

 Orbital energies  State     L     Occupation   Energy[a.u.]          Energy[eV]

                       1     0          2.000     -14.050793         -382.341534
                       2     0          2.000      -0.664480          -18.081407

                       1     1          3.000      -0.282375           -7.683823


 Total Electron Density at R=0:                                       189.469012

 Guess for atomic kind: S

 Electronic structure
    Total number of core electrons                                          0.00
    Total number of valence electrons                                      16.00
    Total number of electrons                                              16.00
    Multiplicity                                                   not specified
    S      2.00  2.00  2.00
    P      6.00  4.00


 *******************************************************************************
                  Iteration          Convergence                     Energy [au]
 *******************************************************************************
                          1        0.508992                    -396.532503655990
                          2        0.158529                    -396.545404359598
                          3        0.440887E-01                -396.549661500960
                          4        0.692753E-03                -396.550151447682
                          5        0.988290E-05                -396.550151571718
                          6        0.574825E-08                -396.550151571747

 Energy components [Hartree]           Total Energy ::         -396.550151571747
                                        Band Energy ::         -227.617519441937
                                     Kinetic Energy ::          396.442273376157
                                   Potential Energy ::         -792.992424947904
                                      Virial (-V/T) ::            2.000272115773
                                        Core Energy ::         -549.094947582507
                                          XC Energy ::          -24.160563523673
                                     Coulomb Energy ::          176.705359534434

 Orbital energies  State     L     Occupation   Energy[a.u.]          Energy[eV]

                       1     0          2.000     -87.724168        -2387.096014
                       2     0          2.000      -7.695851         -209.414757
                       3     0          2.000      -0.626682          -17.052872

                       1     1          6.000      -5.751215         -156.498516
                       2     1          4.000      -0.254207           -6.917329


 Total Electron Density at R=0:                                      2398.079628
 Re-scaling the density matrix to get the right number of electrons
                  # Electrons              Trace(P)               Scaling factor
                          128               128.000                        1.000

 Number of electrons:                                                        128
 Number of occupied orbitals:                                                 64
 Number of molecular orbitals:                                               380

 Number of orbital functions:                                                380
 Number of independent orbital functions:                                    380


 SCF WAVEFUNCTION OPTIMIZATION

  Step     Update method      Time    Convergence         Total energy    Change
  ------------------------------------------------------------------------------

  HFX_MEM_INFO| Est. max. program size before HFX [MiB]:                     781
  HFX_MEM_INFO| Number of cart. primitive ERI's calculated:         600929192450
  HFX_MEM_INFO| Number of sph. ERI's calculated:                      3099522633
  HFX_MEM_INFO| Number of sph. ERI's stored in-core:                  3099522633
  HFX_MEM_INFO| Number of sph. ERI's stored on disk:                           0
  HFX_MEM_INFO| Number of sph. ERI's calculated on the fly:                    0
  HFX_MEM_INFO| Total memory consumption ERI's RAM [MiB]:                  10715
  HFX_MEM_INFO| Whereof max-vals [MiB]:                                        6
  HFX_MEM_INFO| Total compression factor ERI's RAM:                         2.21
  HFX_MEM_INFO| Total memory consumption ERI's disk [MiB]:                     0
  HFX_MEM_INFO| Total compression factor ERI's disk:                        0.00
  HFX_MEM_INFO| Size of density/Fock matrix [MiB]:                             0
  HFX_MEM_INFO| Size of buffers [MiB]:                                        24
  HFX_MEM_INFO| Est. max. program size after HFX  [MiB]:                    1399

     1 NoMix/Diag. 0.10E+00   43.4     7.59442450     -2540.1007648395 -2.54E+03
     2 Broy./Diag. 0.10E+00    1.3     0.30424106     -2535.8752539296  4.23E+00
     3 Broy./Diag. 0.10E+00    0.9     0.06530556     -2535.5871213295  2.88E-01
     4 Broy./Diag. 0.10E+00    0.9     1.13018590     -2535.6680262276 -8.09E-02
     5 Broy./Diag. 0.10E+00    0.9     0.07494679     -2537.0477392464 -1.38E+00
     6 Broy./Diag. 0.10E+00    0.9     0.03248460     -2537.2314091733 -1.84E-01
     7 Broy./Diag. 0.10E+00    0.9     0.46510395     -2536.7642970547  4.67E-01
     8 Broy./Diag. 0.10E+00    0.9     0.03127090     -2536.5645688184  2.00E-01
     9 Broy./Diag. 0.10E+00    0.9     0.02491851     -2536.6544884665 -8.99E-02
    10 Broy./Diag. 0.10E+00    0.9     0.00543244     -2536.6766239447 -2.21E-02
    11 Broy./Diag. 0.10E+00    0.9     0.00280521     -2536.6861198129 -9.50E-03
    12 Broy./Diag. 0.10E+00    0.9     0.06847327     -2536.6500367123  3.61E-02
    13 Broy./Diag. 0.10E+00    0.9     0.07316465     -2536.6438420937  6.19E-03
    14 Broy./Diag. 0.10E+00    0.9     0.01874609     -2536.7488766875 -1.05E-01
    15 Broy./Diag. 0.10E+00    0.9     0.04199152     -2536.8675119915 -1.19E-01
    16 Broy./Diag. 0.10E+00    0.9     0.03063432     -2536.9069271567 -3.94E-02
    17 Broy./Diag. 0.10E+00    0.9     0.02251314     -2536.9285850684 -2.17E-02
    18 Broy./Diag. 0.10E+00    0.9     0.03464504     -2536.9613759668 -3.28E-02
    19 Broy./Diag. 0.10E+00    0.9     0.01528133     -2536.9665865686 -5.21E-03
    20 Broy./Diag. 0.10E+00    0.9     0.00693510     -2536.9690737293 -2.49E-03
    21 Broy./Diag. 0.10E+00    0.9     0.00895240     -2536.9737953916 -4.72E-03
    22 Broy./Diag. 0.10E+00    0.9     0.00468630     -2536.9741431268 -3.48E-04
    23 Broy./Diag. 0.10E+00    0.9     0.00963560     -2536.9794030787 -5.26E-03
    24 Broy./Diag. 0.10E+00    0.9     0.01546560     -2536.9792046285  1.98E-04
    25 Broy./Diag. 0.10E+00    0.9     0.00527959     -2536.9640122081  1.52E-02
    26 Broy./Diag. 0.10E+00    0.9     0.00244485     -2536.9604424774  3.57E-03
    27 Broy./Diag. 0.10E+00    0.9     0.01339924     -2536.9578121685  2.63E-03
    28 Broy./Diag. 0.10E+00    0.9     0.00535152     -2536.9516055116  6.21E-03
    29 Broy./Diag. 0.10E+00    0.8     0.00551931     -2536.9554173418 -3.81E-03
    30 Broy./Diag. 0.10E+00    0.9     0.00482517     -2536.9595657928 -4.15E-03
    31 Broy./Diag. 0.10E+00    0.9     0.00257205     -2536.9543811931  5.18E-03
    32 Broy./Diag. 0.10E+00    0.9     0.00256608     -2536.9496327262  4.75E-03
    33 Broy./Diag. 0.10E+00    0.9     0.00121477     -2536.9493150460  3.18E-04
    34 Broy./Diag. 0.10E+00    0.9     0.00100860     -2536.9501609443 -8.46E-04
    35 Broy./Diag. 0.10E+00    0.9     0.00262500     -2536.9507718051 -6.11E-04
    36 Broy./Diag. 0.10E+00    1.0     0.00020723     -2536.9516198002 -8.48E-04
    37 Broy./Diag. 0.10E+00    0.9     0.00181949     -2536.9505891463  1.03E-03
    38 Broy./Diag. 0.10E+00    0.9     0.00257515     -2536.9500199149  5.69E-04
    39 Broy./Diag. 0.10E+00    0.9     0.00051735     -2536.9510255123 -1.01E-03
    40 Broy./Diag. 0.10E+00    0.9     0.00034241     -2536.9509785949  4.69E-05
    41 Broy./Diag. 0.10E+00    0.9     0.00041872     -2536.9507640053  2.15E-04
    42 Broy./Diag. 0.10E+00    0.9     0.00087910     -2536.9511001095 -3.36E-04
    43 Broy./Diag. 0.10E+00    0.9     0.00024154     -2536.9509016840  1.98E-04
    44 Broy./Diag. 0.10E+00    0.9     0.00041436     -2536.9509102042 -8.52E-06
    45 Broy./Diag. 0.10E+00    0.9     0.00014171     -2536.9510526779 -1.42E-04
    46 Broy./Diag. 0.10E+00    0.9     0.00022239     -2536.9509522740  1.00E-04
    47 Broy./Diag. 0.10E+00    0.9     0.00010231     -2536.9506809167  2.71E-04
    48 Broy./Diag. 0.10E+00    0.9     0.00015999     -2536.9508060039 -1.25E-04
    49 Broy./Diag. 0.10E+00    0.9     0.00006408     -2536.9508641958 -5.82E-05
    50 Broy./Diag. 0.10E+00    0.9     0.00014975     -2536.9505528915  3.11E-04
    51 Broy./Diag. 0.10E+00    0.9     0.00006523     -2536.9504713581  8.15E-05
    52 Broy./Diag. 0.10E+00    0.9     0.00018577     -2536.9503628245  1.09E-04
    53 Broy./Diag. 0.10E+00    0.9     0.00009059     -2536.9501524485  2.10E-04
    54 Broy./Diag. 0.10E+00    0.9     0.00001973     -2536.9501704255 -1.80E-05
    55 Broy./Diag. 0.10E+00    0.9     0.00004581     -2536.9501878662 -1.74E-05
    56 Broy./Diag. 0.10E+00    0.9     0.00008854     -2536.9501746293  1.32E-05
    57 Broy./Diag. 0.10E+00    0.9     0.00003688     -2536.9502550928 -8.05E-05
    58 Broy./Diag. 0.10E+00    0.9     0.00004575     -2536.9503317003 -7.66E-05
    59 Broy./Diag. 0.10E+00    0.9     0.00004008     -2536.9503199833  1.17E-05
    60 Broy./Diag. 0.10E+00    0.9     0.00000405     -2536.9503211546 -1.17E-06
    61 Broy./Diag. 0.10E+00    0.9     0.00000285     -2536.9503187269  2.43E-06
    62 Broy./Diag. 0.10E+00    0.9     0.00004651     -2536.9503458056 -2.71E-05
    63 Broy./Diag. 0.10E+00    0.9     0.00001875     -2536.9503747391 -2.89E-05
    64 Broy./Diag. 0.10E+00    0.9     0.00000382     -2536.9503470872  2.77E-05
    65 Broy./Diag. 0.10E+00    0.9     0.00002897     -2536.9503319964  1.51E-05
    66 Broy./Diag. 0.10E+00    0.9     0.00001495     -2536.9503534198 -2.14E-05
    67 Broy./Diag. 0.10E+00    0.9     0.00004048     -2536.9503910990 -3.77E-05
    68 Broy./Diag. 0.10E+00    0.9     0.00001343     -2536.9504318092 -4.07E-05
    69 Broy./Diag. 0.10E+00    0.9     0.00001692     -2536.9504287657  3.04E-06
    70 Broy./Diag. 0.10E+00    0.9     0.00000560     -2536.9504191810  9.58E-06
    71 Broy./Diag. 0.10E+00    0.9     0.00002416     -2536.9504138043  5.38E-06
    72 Broy./Diag. 0.10E+00    0.9     0.00000434     -2536.9504158484 -2.04E-06
    73 Broy./Diag. 0.10E+00    0.9     0.00001085     -2536.9504221355 -6.29E-06
    74 Broy./Diag. 0.10E+00    0.9     0.00001076     -2536.9504233751 -1.24E-06
    75 Broy./Diag. 0.10E+00    0.9     0.00000597     -2536.9504195827  3.79E-06
    76 Broy./Diag. 0.10E+00    0.9     0.00000199     -2536.9504170638  2.52E-06
    77 Broy./Diag. 0.10E+00    0.9     0.00000281     -2536.9504162628  8.01E-07
    78 Broy./Diag. 0.10E+00    0.9     0.00000132     -2536.9504155445  7.18E-07
    79 Broy./Diag. 0.10E+00    0.9     0.00000128     -2536.9504134398  2.10E-06
    80 Broy./Diag. 0.10E+00    0.9     0.00000115     -2536.9504121294  1.31E-06
    81 Broy./Diag. 0.10E+00    0.9     0.00000091     -2536.9504103352  1.79E-06

  *** SCF run converged in    81 steps ***


  Electronic density on regular grids:        -71.9027001516       56.0972998484
  Core density on regular grids:              128.0000000000        0.0000000000
  Hard and soft densities (Lebedev):         -463.3873474377     -407.2900469894
  Total Rho_soft + Rho1_hard - Rho1_soft     -128.0000005999
  Total charge density (r-space):              -0.0000005999
  Total Rho_soft + Rho0_soft (g-space):         0.0000003957

  Overlap energy of the core charge distribution:               0.00000523956929
  Self energy of the core charge distribution:              -1208.47608429730235
  Core Hamiltonian energy:                                  -1342.32494995693264
  Hartree energy:                                             221.39239184053400
  Exchange-correlation energy:                                -25.68389400119520
  Hartree-Fock Exchange energy:                               -43.49108590211670

  GAPW| Exc from hard and soft atomic rho1:                  -109.13560296895957
  GAPW| local Eh = 1 center integrals:                        -29.23119028883670

  Total energy:                                             -2536.95041033524012

 !-----------------------------------------------------------------------------!
                     Mulliken Population Analysis

 #  Atom  Element  Kind  Atomic population                           Net charge
       1     Cl       1         17.457273                             -0.457273
       2     Cl       1         17.457273                             -0.457273
       3     C        2          5.573162                              0.426838
       4     C        2          5.319709                              0.680291
       5     C        2          5.036397                              0.963603
       6     N        3          7.699511                             -0.699511
       7     N        3          7.529934                             -0.529934
       8     Cl       1         17.554652                             -0.554652
       9     S        4         15.604151                              0.395849
      10     Cl       1         17.565306                             -0.565306
      11     C        2          5.593888                              0.406112
      12     C        2          5.608744                              0.391256
 # Total charge                            128.000000                 -0.000000

 !-----------------------------------------------------------------------------!

 !-----------------------------------------------------------------------------!
                           Hirshfeld Charges

  #Atom  Element  Kind  Ref Charge     Population                    Net charge
      1       Cl     1      17.000         17.382                        -0.382
      2       Cl     1      17.000         17.382                        -0.382
      3       C      2       6.000          5.608                         0.392
      4       C      2       6.000          5.354                         0.646
      5       C      2       6.000          5.849                         0.151
      6       N      3       7.000          7.102                        -0.102
      7       N      3       7.000          6.897                         0.103
      8       Cl     1      17.000         17.333                        -0.333
      9       S      4      16.000         16.425                        -0.425
     10       Cl     1      17.000         17.360                        -0.360
     11       C      2       6.000          5.677                         0.323
     12       C      2       6.000          5.629                         0.371

  Total Charge                                                            0.002
 !-----------------------------------------------------------------------------!
  
 -------------------------------------------------------------------------------
 -                                                                             -
 -                          BANDSTRUCTURE CALCULATION                          -
 -                                                                             -
 -------------------------------------------------------------------------------
  
 Number of occupied molecular orbitals (MOs) = Number of occupied bands       64
 Number of unoccupied (= virtual) MOs = Number of unoccupied bands           316
 Number of Gaussian basis functions for MOs                                  380
 K-point mesh for the density of states (DOS) and the self-energy      1   1   1
  
 -------------------------------------------------------------------------------
 -                                                                             -
 -                                GW CALCULATION                               -
 -                                                                             -
 -------------------------------------------------------------------------------
  
 Input: Number of time/freq. points                                           30
 Input: ω_max for fitting Σ(iω) (eV)                                        10.0
 Input: Filter threshold for sparse tensor operations                    1.0E-11
 Input: Apply Hedin shift                                                      F
  
 Number of auxiliary Gaussian basis functions for χ, ε, W                    941
 Cutoff radius for the truncated Coulomb operator in Σ^x:               2645.9 Å
 Cutoff radius for the truncated Coulomb operator in RI metric:            9.0 Å
 Regularization parameter of RI                                          1.0E-02
 Regularization parameter of minimax grids                               1.0E-06
 Lattice sum size for V(k):                                                    3
  
 K-point mesh 1 for χ, ε, W                                            1   1   1
 K-point mesh 2 for χ, ε, W (for k-point extrapolation of W)           1   1   1
 Approximate the k-point extrapolation                                         F
 Group size for tensor operations                                            192
 
 Computed 3-center integrals (µν|P), execution time                        0.4 s
 Percentage of non-zero (µν|P)                                         100.000 %
 Max. distance between µ,ν in non-zero (µν|P)                              6.1 A
 Required memory if storing all 3-center integrals (µν|P)                   1 GB
 
 Number of i and j atoms in M_λνP(τ), N_νλQ(τ):                              108
 Number of inner loop atoms for µ in M_λνP = sum_µ (µν|P) G_µλ                12
 
 SCF direct band gap (eV)                                                   4.34
 Max. SCF eigval diff. (eV)                                             56238.82
 E-Range for minimax grid                                               12955.22
 Number of Padé parameters for analytic continuation:                          5
 
 Computed χ(iτ,k=0) for time point            1 / 30,    Execution time    0.5 s
 Computed χ(iτ,k=0) for time point            2 / 30,    Execution time    0.5 s
 Computed χ(iτ,k=0) for time point            3 / 30,    Execution time    0.4 s
 Computed χ(iτ,k=0) for time point            4 / 30,    Execution time    0.5 s
 Computed χ(iτ,k=0) for time point            5 / 30,    Execution time    0.4 s
 Computed χ(iτ,k=0) for time point            6 / 30,    Execution time    0.4 s
 Computed χ(iτ,k=0) for time point            7 / 30,    Execution time    0.4 s
 Computed χ(iτ,k=0) for time point            8 / 30,    Execution time    0.4 s
 Computed χ(iτ,k=0) for time point            9 / 30,    Execution time    0.4 s
 Computed χ(iτ,k=0) for time point           10 / 30,    Execution time    0.4 s
 Computed χ(iτ,k=0) for time point           11 / 30,    Execution time    0.4 s
 Computed χ(iτ,k=0) for time point           12 / 30,    Execution time    0.5 s
 Computed χ(iτ,k=0) for time point           13 / 30,    Execution time    0.4 s
 Computed χ(iτ,k=0) for time point           14 / 30,    Execution time    0.4 s
 Computed χ(iτ,k=0) for time point           15 / 30,    Execution time    0.4 s
 Computed χ(iτ,k=0) for time point           16 / 30,    Execution time    0.4 s
 Computed χ(iτ,k=0) for time point           17 / 30,    Execution time    0.5 s
 Computed χ(iτ,k=0) for time point           18 / 30,    Execution time    0.4 s
 Computed χ(iτ,k=0) for time point           19 / 30,    Execution time    0.4 s
 Computed χ(iτ,k=0) for time point           20 / 30,    Execution time    0.4 s
 Computed χ(iτ,k=0) for time point           21 / 30,    Execution time    0.4 s
 Computed χ(iτ,k=0) for time point           22 / 30,    Execution time    0.5 s
 Computed χ(iτ,k=0) for time point           23 / 30,    Execution time    0.4 s
 Computed χ(iτ,k=0) for time point           24 / 30,    Execution time    0.4 s
 Computed χ(iτ,k=0) for time point           25 / 30,    Execution time    0.4 s
 Computed χ(iτ,k=0) for time point           26 / 30,    Execution time    0.4 s
 Computed χ(iτ,k=0) for time point           27 / 30,    Execution time    0.4 s
 Computed χ(iτ,k=0) for time point           28 / 30,    Execution time    0.4 s
 Computed χ(iτ,k=0) for time point           29 / 30,    Execution time    0.4 s
 Computed χ(iτ,k=0) for time point           30 / 30,    Execution time    0.5 s
 
 Computed W(iτ,k) for k-point batch           1 /  1,    Execution time    4.8 s
 
 Computed Σ^x(k=0),                                      Execution time    0.6 s
 
 Computed Σ^c(iτ,k=0) for time point          1 / 30,    Execution time    0.7 s
 Computed Σ^c(iτ,k=0) for time point          2 / 30,    Execution time    0.7 s
 Computed Σ^c(iτ,k=0) for time point          3 / 30,    Execution time    0.7 s
 Computed Σ^c(iτ,k=0) for time point          4 / 30,    Execution time    0.6 s
 Computed Σ^c(iτ,k=0) for time point          5 / 30,    Execution time    0.7 s
 Computed Σ^c(iτ,k=0) for time point          6 / 30,    Execution time    0.6 s
 Computed Σ^c(iτ,k=0) for time point          7 / 30,    Execution time    0.6 s
 Computed Σ^c(iτ,k=0) for time point          8 / 30,    Execution time    0.6 s
 Computed Σ^c(iτ,k=0) for time point          9 / 30,    Execution time    0.6 s
 Computed Σ^c(iτ,k=0) for time point         10 / 30,    Execution time    0.6 s
 Computed Σ^c(iτ,k=0) for time point         11 / 30,    Execution time    0.6 s
 Computed Σ^c(iτ,k=0) for time point         12 / 30,    Execution time    0.6 s
 Computed Σ^c(iτ,k=0) for time point         13 / 30,    Execution time    0.7 s
 Computed Σ^c(iτ,k=0) for time point         14 / 30,    Execution time    0.7 s
 Computed Σ^c(iτ,k=0) for time point         15 / 30,    Execution time    0.7 s
 Computed Σ^c(iτ,k=0) for time point         16 / 30,    Execution time    0.6 s
 Computed Σ^c(iτ,k=0) for time point         17 / 30,    Execution time    0.7 s
 Computed Σ^c(iτ,k=0) for time point         18 / 30,    Execution time    0.7 s
 Computed Σ^c(iτ,k=0) for time point         19 / 30,    Execution time    0.7 s
 Computed Σ^c(iτ,k=0) for time point         20 / 30,    Execution time    0.7 s
 Computed Σ^c(iτ,k=0) for time point         21 / 30,    Execution time    0.6 s
 Computed Σ^c(iτ,k=0) for time point         22 / 30,    Execution time    0.6 s
 Computed Σ^c(iτ,k=0) for time point         23 / 30,    Execution time    0.6 s
 Computed Σ^c(iτ,k=0) for time point         24 / 30,    Execution time    0.7 s
 Computed Σ^c(iτ,k=0) for time point         25 / 30,    Execution time    0.7 s
 Computed Σ^c(iτ,k=0) for time point         26 / 30,    Execution time    0.7 s
 Computed Σ^c(iτ,k=0) for time point         27 / 30,    Execution time    0.7 s
 Computed Σ^c(iτ,k=0) for time point         28 / 30,    Execution time    0.6 s
 Computed Σ^c(iτ,k=0) for time point         29 / 30,    Execution time    0.6 s
 Computed Σ^c(iτ,k=0) for time point         30 / 30,    Execution time    0.7 s
 
 Sparsity of Σ^c(iτ,k=0): Percentage of skipped atom pairs:                0.0 %

 
 SCF valence band maximum (eV):                                           -7.512
 SCF conduction band minimum (eV):                                        -3.171
 SCF indirect band gap (eV):                                               4.341
 SCF direct band gap (eV):                                                 4.341
 
 G0W0 valence band maximum (eV):                                          -8.796
 G0W0 conduction band minimum (eV):                                       -1.390
 G0W0 indirect band gap (eV):                                              7.407
 G0W0 direct band gap (eV):                                                7.407
 
 Hartree-Fock with SCF orbitals valence band maximum (eV):                -9.050
 Hartree-Fock with SCF orbitals conduction band minimum (eV)               0.549
 Hartree-Fock with SCF orbitals indirect band gap (eV):                    9.600
 Hartree-Fock with SCF orbitals direct band gap (eV):                      9.600

 ENERGY| Total FORCE_EVAL ( QS ) energy [hartree]          -2536.950410335240122

 -------------------------------------------------------------------------------
 -                                                                             -
 -                                DBCSR STATISTICS                             -
 -                                                                             -
 -------------------------------------------------------------------------------
 COUNTER                                    TOTAL       BLAS       SMM       ACC
 flops    34 x    34 x    28             78654240     100.0%      0.0%      0.0%     
 flops    30 x    34 x    28             78654240     100.0%      0.0%      0.0%     
 flops    34 x    30 x    28             83280960     100.0%      0.0%      0.0%     
 flops    30 x    30 x    28            114307200     100.0%      0.0%      0.0%     
 flops    34 x    34 x    32            988796160     100.0%      0.0%      0.0%     
 flops    30 x    34 x    32            988796160     100.0%      0.0%      0.0%     
 flops    34 x    30 x    32           1046960640     100.0%      0.0%      0.0%     
 flops    30 x    30 x    32           1437004800     100.0%      0.0%      0.0%     
 flops inhomo. stacks                           0       0.0%      0.0%      0.0%
 flops total                         4.816454E+09     100.0%      0.0%      0.0%
 flops max/rank                    196.745760E+06     100.0%      0.0%      0.0%
 matmuls inhomo. stacks                         0       0.0%      0.0%      0.0%
 matmuls total                              75816     100.0%      0.0%      0.0%
 number of processed stacks                 73872     100.0%      0.0%      0.0%
 average stack size                                     1.0       0.0       0.0
 marketing flops                     1.497138E+09
 -------------------------------------------------------------------------------
 # multiplications                             81
 max memory usage/rank              19.726893E+09
 # max total images/rank                        3
 # max 3D layers                                1
 # MPI messages exchanged                  684288
 MPI messages size (bytes):
  total size                         2.807136E+09
  min size                           0.000000E+00
  max size                          24.064000E+03
  average size                       4.102272E+03
 MPI breakdown and total messages size (bytes):
             size <=      128              468504                        0
       128 < size <=     8192               72819                553469760
      8192 < size <=    32768              142965               2253666240
     32768 < size <=   131072                   0                        0
    131072 < size <=  4194304                   0                        0
   4194304 < size <= 16777216                   0                        0
  16777216 < size                               0                        0
 -------------------------------------------------------------------------------

 *** WARNING in dbcsr_mm.F:301 :: Using a non-square number of MPI ranks ***
 *** might lead to poor performance. Used ranks: 192 Suggested: 196 400  ***

 -------------------------------------------------------------------------------
 -                                                                             -
 -                      DBCSR MESSAGE PASSING PERFORMANCE                      -
 -                                                                             -
 -------------------------------------------------------------------------------
 ROUTINE             CALLS      AVE VOLUME [Bytes]
 MP_Bcast                9                     12.
 MP_Allreduce          522                      9.
 MP_Alltoall          5690                 106989.
 MP_ISend             7614                   3458.
 MP_IRecv             7776                   3023.
 -------------------------------------------------------------------------------

 -------------------------------------------------------------------------------
 -                                                                             -
 -                                DBM STATISTICS                               -
 -                                                                             -
 -------------------------------------------------------------------------------
    M  x    N  x    K                                          COUNT     PERCENT
    ?  x    ?  x    ?                                          26976      45.13%
 >999  x   ??  x   ??                                          17424      29.15%
   ??  x   ??  x >999                                           9744      16.30%
   ??  x >999  x   ??                                            992       1.66%
   ??  x  ???  x   ??                                            496       0.83%
   ??  x >999  x  ???                                            496       0.83%
  ???  x >999  x   ??                                            496       0.83%
   ??  x  ???  x  ???                                            488       0.82%
   ??  x   ??  x  ???                                            480       0.80%
   ??  x  ???  x >999                                            480       0.80%
  ???  x   ??  x >999                                            480       0.80%
  ???  x  ???  x   ??                                            248       0.41%
  ???  x >999  x  ???                                            248       0.41%
  ???  x  ???  x  ???                                            244       0.41%
  ???  x   ??  x  ???                                            240       0.40%
  ???  x  ???  x >999                                            240       0.40%
 -------------------------------------------------------------------------------

 -------------------------------------------------------------------------------
 -                                                                             -
 -                                GRID STATISTICS                              -
 -                                                                             -
 -------------------------------------------------------------------------------
 LP    KERNEL             BACKEND                              COUNT     PERCENT
 3     collocate ortho    CPU                                  15334      23.97%
 3     integrate ortho    CPU                                  15334      23.97%
 6     collocate ortho    CPU                                   9512      14.87%
 6     integrate ortho    CPU                                   9512      14.87%
 0     collocate ortho    CPU                                   6150       9.61%
 0     integrate ortho    CPU                                   6150       9.61%
 2     collocate general  CPU                                    984       1.54%
 2     integrate general  CPU                                    984       1.54%
 0     collocate general  CPU                                     12       0.02%
 0     integrate general  CPU                                     12       0.02%
 -------------------------------------------------------------------------------

 -------------------------------------------------------------------------------
 -                                                                             -
 -                          OFFLOAD MEMPOOL STATISTICS                         -
 -                                                                             -
 -------------------------------------------------------------------------------
 Memory consumption                Number of allocations  Used [MiB]  Size [MiB]
 Host                                                110          81         122
 -------------------------------------------------------------------------------

 MEMORY| Estimated peak process memory [MiB]                                1723

 -------------------------------------------------------------------------------
 ----                             MULTIGRID INFO                            ----
 -------------------------------------------------------------------------------
 count for grid        1:       51387781          cutoff [a.u.]          250.00
 count for grid        2:        6026427          cutoff [a.u.]           83.33
 count for grid        3:        4423832          cutoff [a.u.]           27.78
 count for grid        4:        1268226          cutoff [a.u.]            9.26
 total gridlevel count  :       63106266

 -------------------------------------------------------------------------------
 -                                                                             -
 -                         MESSAGE PASSING PERFORMANCE                         -
 -                                                                             -
 -------------------------------------------------------------------------------

 ROUTINE             CALLS      AVE VOLUME [Bytes]
 MP_Group             2997
 MP_Bcast             8010                 239157.
 MP_Allreduce        25917                  30819.
 MP_Sync              3943
 MP_Alltoall          4465                7679363.
 MP_SendRecv         31324                  69520.
 MP_ISendRecv        63030                  47281.
 MP_Wait             94782
 MP_comm_split        1622
 MP_ISend            33503                 341374.
 MP_IRecv            34683                 330209.
 -------------------------------------------------------------------------------


 -------------------------------------------------------------------------------
 -                                                                             -
 -                           R E F E R E N C E S                               -
 -                                                                             -
 -------------------------------------------------------------------------------
 
 CP2K version 2025.2 (Development Version), the CP2K developers group (2025).
 CP2K is freely available from https://www.cp2k.org/ .
 
 M. Graml, K. Zollner, D. Hernangómez-Pérez, P. E. Faria Junior, J. Wilhelm.
 J. Chem. Theory Comput. 20, 2202-2208 (2024).
 Low-scaling GW algorithm applied to twisted transition-metal dichalcogenide 
 heterobilayers.
 https://doi.org/10.1021/acs.jctc.3c01230

 T. D. Kuehne, M. Iannuzzi, M. Del Ben, V. V. Rybkin, P. Seewald, F. Stein, T. 
 Laino, R. Z. Khaliullin, O. Schuett, F. Schiffmann, D. Golze, J. Wilhelm, S. 
 Chulkov, M. H. Bani-Hashemian, V. Weber, U. Borstnik, M. Taillefumier, A. S. 
 Jakobovits, A. Lazzaro, H. Pabst, T. Mueller, R. Schade, M. Guidon, S. 
 Andermatt, N. Holmberg, G. K. Schenter, A. Hehn, A. Bussy, F. Belleflamme, G. 
 Tabacchi, A. Gloess, M. Lass, I. Bethune, C. J. Mundy, C. Plessl, M. Watkins, 
 J. VandeVondele, M. Krack, J. Hutter.
 J. Chem. Phys. 152, 194103 (2020).
 CP2K: An electronic structure and molecular dynamics software package - 
 Quickstep: Efficient and accurate electronic structure calculations.
 https://doi.org/10.1063/5.0007045

 O. Schuett, P. Messmer, J. Hutter, J. VandeVondele.
 Electronic Structure Calculations on Graphics Processing Units, 173-190 (2016).
 GPU-Accelerated Sparse Matrix-Matrix Multiplication for Linear Scaling Density 
 Functional Theory.
 https://doi.org/10.1002/9781118670712.ch8

 A. Heinecke, G. Henry, M. Hutchinson, H. Pabst.
 Proceedings of Intl. Supercomputing Conference, 981-991 (2016).
 LIBXSMM: Accelerating Small Matrix Multiplications by Runtime Code Generation.
 https://doi.org/10.1109/SC.2016.83

 J. Hutter, M. Iannuzzi, F. Schiffmann, J. VandeVondele.
 WIREs Comput Mol Sci. 4, 15-25 (2014).
 CP2K: atomistic simulations of condensed matter systems.
 https://doi.org/10.1002/wcms.1159

 U. Borstnik, J. VandeVondele, V. Weber, J. Hutter.
 Parallel Comput. 40, 47-58 (2014).
 Sparse matrix multiplication: The distributed block-compressed sparse row 
 library.
 https://doi.org/10.1016/j.parco.2014.03.012

 A. Marek, V. Blum, R. Johanni, V. Havu, B. Lang, T. Auckenthaler, A. Heinecke, 
 H. Bungartz, H. Lederer.
 J. Phys. Condens. Matter 26, 213201 (2014).
 The ELPA library: scalable parallel eigenvalue solutions for electronic 
 structure theory and computational science.
 https://doi.org/10.1088/0953-8984/26/21/213201

 M. Guidon, J. Hutter, J. VandeVondele.
 J. Chem. Theory Comput. 5, 3010-3021 (2009).
 Robust Periodic Hartree-Fock Exchange for Large-Scale Simulations Using 
 Gaussian Basis Sets.
 https://doi.org/10.1021/ct900494g

 M. Guidon, F. Schiffmann, J. Hutter, J. VandeVondele.
 J. Chem. Phys. 128, 214104 (2008).
 Ab initio molecular dynamics using hybrid density functionals.
 https://doi.org/10.1063/1.2931945

 L. Genovese, T. Deutsch, S. Goedecker.
 J. Chem. Phys. 127, 054704 (2007).
 Efficient and accurate three-dimensional Poisson solver for surface problems.
 https://doi.org/10.1063/1.2754685

 J. VandeVondele, J. Hutter.
 J. Chem. Phys. 127, 114105 (2007).
 Gaussian basis sets for accurate calculations on molecular systems in gas and 
 condensed phases.
 https://doi.org/10.1063/1.2770708

 L. Genovese, T. Deutsch, A. Neelov, S. Goedecker, G. Beylkin.
 J. Chem. Phys. 125, 074105 (2006).
 Efficient solution of Poisson's equation with free boundary conditions.
 https://doi.org/10.1063/1.2335442

 M. Frigo, S. G. Johnson.
 Proc. IEEE 93, 216-231 (2005).
 The design and implementation of FFTW3.
 https://doi.org/10.1109/JPROC.2004.840301

 M. Krack, M. Parrinello.
 Phys. Chem. Chem. Phys. 2, 2105-2112 (2000).
 All-electron ab-initio molecular dynamics.
 https://doi.org/10.1039/b001167n

 G. Lippert, J. Hutter, M. Parrinello.
 Theor. Chem. Acc. 103, 124-140 (1999).
 The Gaussian and augmented-plane-wave density functional method for ab initio 
 molecular dynamics simulations.
 https://doi.org/10.1007/s002140050523

 J. P. Perdew, K. Burke, M. Ernzerhof.
 Phys. Rev. Lett. 77, 3865-3868 (1996).
 Generalized gradient approximation made simple.
 https://doi.org/10.1103/PhysRevLett.77.3865


 -------------------------------------------------------------------------------
 -                                                                             -
 -                                T I M I N G                                  -
 -                                                                             -
 -------------------------------------------------------------------------------
 SUBROUTINE                       CALLS  ASD         SELF TIME        TOTAL TIME
                                MAXIMUM       AVERAGE  MAXIMUM  AVERAGE  MAXIMUM
 CP2K                                 1  1.0    0.011    0.021  158.750  158.758
 qs_energies                          1  2.0    0.000    0.000  158.396  158.404
 scf_env_do_scf                       1  3.0    0.000    0.000  114.966  114.972
 scf_env_do_scf_inner_loop           81  4.0    0.002    0.004  114.966  114.972
 qs_ks_build_kohn_sham_matrix        82  7.0    0.011    0.014   95.854   95.880
 qs_ks_update_qs_env                 81  5.0    0.001    0.001   95.367   95.393
 rebuild_ks_matrix                   81  6.0    0.000    0.000   95.359   95.385
 hfx_ks_matrix                       82  8.0    0.001    0.002   41.994   42.016
 integrate_four_center               82  9.0    1.631    3.078   41.990   42.014
 qs_energies_properties               1  3.0    0.000    0.000   40.461   40.467
 post_scf_bandstructure               1  4.0    0.000    0.000   40.461   40.467
 gw                                   1  5.0    0.000    0.000   40.340   40.342
 gw_calc_large_cell_Gamma             1  6.0    0.000    0.000   38.828   38.841
 fft_wrap_pw1pw2                   1713 10.0    0.017    0.021   29.557   30.221
 integrate_four_center_main          82 10.0    0.593    2.375   21.577   29.289
 integrate_four_center_bin        34683 11.0   20.984   29.256   20.984   29.256
 fft_wrap_pw1pw2_250               1221 11.1    0.473    0.578   27.914   28.646
 fft3d_ps                          1713 12.0    3.166    4.422   27.860   28.477
 mp_sync                           3943 12.1   17.870   24.941   17.870   24.941
 mp_alltoall_z22v                  1713 14.0   23.563   24.103   23.563   24.103
 pw_poisson_solve                    82  8.0    0.124    0.178   19.899   19.950
 get_Sigma_c                          1  7.0    0.001    0.001   19.693   19.694
 dbt_total                          699  9.0    0.003    0.004   16.671   16.672
 dbt_contract                       243  9.9    0.008    0.009   15.435   15.436
 compute_3c_integrals               152  8.6    0.003    0.003   15.337   15.338
 dbt_tas_multiply                   486 12.4    0.001    0.001   15.227   15.229
 dbt_tas_total                      486 13.4    0.043    0.089   15.216   15.217
 qs_rho_update_rho_low               82  5.0    0.001    0.001   14.949   14.952
 build_3c_integrals                 156  9.6    8.093   12.784    9.188   14.395
 calculate_rho_elec                  82  6.0    0.055    0.083   14.362   14.364
 qs_vxc_create                       82  8.0    0.001    0.002   13.616   13.764
 xc_vxc_pw_create                    81  9.0    0.083    0.120   13.615   13.763
 get_mat_chi_Gamma_tau                1  7.0    0.000    0.001   13.045   13.057
 x_to_yz                            732 12.9    0.375    0.573   12.493   12.836
 yz_to_x                            653 13.2    0.248    0.299   11.643   11.969
 contract_to_Sigma                   61  8.0    0.001    0.001   11.898   11.899
 xc_pw_derive                       486 11.0    0.002    0.003   10.892   11.223
 density_rs2pw                       82  7.0    0.003    0.003    9.403   10.211
 ps_wavelet_solve                    82  9.0    2.276    3.140    9.595    9.992
 calc_screening_functions             1 10.0    7.260    7.375    7.893    8.017
 xc_pw_divergence                    81 10.0    0.001    0.001    7.097    7.356
 compute_3c_and_contract_W           31  8.0    0.000    0.000    7.147    7.147
 sum_up_and_integrate                82  8.0    0.001    0.001    6.429    6.911
 integrate_v_rspace                  82  9.0    0.002    0.003    6.395    6.880
 mp_waitany                       27004 11.5    5.386    6.563    5.386    6.563
 xc_rho_set_and_dset_create          81 10.0    0.089    0.111    6.223    6.538
 prepare_gapw_den                    82  8.0    0.001    0.002    6.259    6.322
 potential_pw2rs                     82 10.0    0.006    0.007    6.161    6.189
 mp_alltoall_d45                     83 10.0    5.367    6.034    5.367    6.034
 dbt_tas_dbm                        486 14.4    0.001    0.001    6.029    6.030
 transfer_rs2pw                     411  8.4    0.007    0.011    4.899    5.691
 dbm_multiply                       486 16.4    5.017    5.625    5.017    5.625
 transfer_pw2rs                     411 10.6    0.003    0.004    5.137    5.485
 mp_alltoall_d54                     82 10.0    3.514    5.367    3.514    5.367
 grid_collocate_task_list            82  7.0    4.757    5.187    4.757    5.187
 get_W_MIC                            1  7.0    0.000    0.000    5.129    5.130
 compute_W_MIC                        1  8.0    0.000    0.000    5.129    5.130
 compute_fm_W_MIC_freq_j             30  9.0    0.000    0.000    4.765    4.765
 mp_alltoall_d11v                  2938 10.6    4.044    4.688    4.044    4.688
 gspace_mixing                       80  5.0    0.054    0.081    3.960    3.962
 cp_cfm_power                        30 10.0    0.001    0.002    3.867    3.879
 cp_cfm_heevd                        32 10.8    0.000    0.000    3.817    3.849
 cp_cfm_heevd_base                   32 11.8    3.817    3.849    3.817    3.849
 integrate_vhg0_rspace               82  8.0    0.210    0.292    3.451    3.688
 transfer_pw2rs_250                 165 11.0    0.731    0.902    3.112    3.563
 put_rho0_on_grid                    82  9.0    0.060    0.094    3.458    3.521
 transfer_rs2pw_250                 165 10.0    0.788    0.901    2.656    3.484
 abc_contract_xsmm               154128 10.6    0.857    3.375    0.857    3.375
 mp_sum_d                          7470  6.9    2.712    3.198    2.712    3.198
 dbm_redistribute                   729 13.6    2.469    3.081    2.469    3.081
 dbt_tas_mm_2                       182 15.2    0.000    0.001    2.907    2.907
 convert_to_new_pgrid              1458 14.4    0.772    1.283    2.316    2.630
 G_times_3c                          60  8.0    0.000    0.004    2.602    2.605
 qs_scf_new_mos                      81  5.0    0.001    0.001    2.556    2.567
 cp_fm_diag_elpa                     87  7.1    0.000    0.000    2.364    2.371
 cp_fm_diag_elpa_base                87  8.0    2.201    2.330    2.249    2.338
 mp_sum_dm                         3032  7.7    2.126    2.336    2.126    2.336
 dbt_tas_create_split              1618 15.2    0.003    0.004    2.210    2.324
 dbt_tas_create_split_rows_or_c    1618 16.2    0.004    0.005    2.206    2.320
 eigensolver_symm                    81  6.0    0.006    0.007    2.262    2.268
 calculate_rho_atom                 328  9.0    0.541    2.231    0.541    2.231
 init_scf_run                         1  3.0    0.000    0.000    2.133    2.133
 broyden_mixing                      80  6.0    1.988    2.047    2.057    2.115
 mp_waitall_1                     77467 12.0    1.468    2.028    1.468    2.028
 mp_sum_dv                        11766  8.7    1.878    1.982    1.878    1.982
 cp2k_distribution_to_z_slices       82  9.0    0.154    0.185    1.730    1.967
 scf_env_initial_rho_setup            1  4.0    0.000    0.000    1.918    1.947
 dbt_tas_mm_3N                       62 15.5    0.000    0.000    1.680    1.898
 pw_poisson_rebuild                  82  9.0    0.000    0.000    1.697    1.738
 ps_wavelet_create                    1 10.0    0.000    0.000    1.697    1.738
 RS_z_slice_distribution              1 11.0    0.103    0.116    1.697    1.738
 dbt_tas_estimate_result_nze        243 12.9    0.121    0.190    1.667    1.667
 create_and_init_bs_env_for_gw        1  6.0    0.000    0.000    1.512    1.566
 dbt_tas_distribution_new          1774 14.6    0.585    0.623    1.528    1.561
 transfer_rs2pw_90                   82  9.0    0.197    0.264    1.427    1.553
 calculate_vxc_atom                  82  8.0    0.027    0.154    1.529    1.530
 transfer_pw2rs_90                   82 12.0    0.154    0.195    1.229    1.465
 reshape_mm_compatible              486 14.4    0.006    0.007    1.383    1.427
 change_split                       729 14.9    0.002    0.006    1.357    1.401
 fft_wrap_pw1pw2_90                 164 10.5    0.016    0.021    1.171    1.379
 gaVxcgb_GC                         162  9.0    0.039    1.332    0.039    1.332
 calc_pair_dist_radii                 1 10.0    0.622    0.661    1.212    1.275
 mp_sum_l                          3114 13.7    0.770    1.270    0.770    1.270
 powell_optimize                1215515 11.0    1.222    1.262    1.222    1.262
 reshape_mm_small                   486 14.4    0.025    0.026    1.163    1.214
 mp_bcast_i                        2211 13.1    1.138    1.142    1.138    1.142
 parallel_gemm_cfm                  283 10.4    0.000    0.000    1.011    1.045
 parallel_gemm_cfm_cosma            283 11.4    1.011    1.045    1.011    1.045
 dbt_copy                           456 10.1    0.005    0.006    0.823    0.953
 parallel_gemm_fm_cosma             346  8.2    0.870    0.906    0.870    0.906
 transfer_pw2rs_30                   82 12.0    0.177    0.228    0.631    0.855
 dbt_tas_reshape                    638 14.5    0.007    0.008    0.762    0.853
 xc_functional_eval                 405 10.9    0.001    0.001    0.479    0.839
 pbe_lda_eval                       405 11.9    0.479    0.838    0.479    0.838
 fm_to_local_tensor                 152  8.0    0.002    0.002    0.831    0.835
 compute_cfm_W_ikp_freq_j            30 10.0    0.001    0.004    0.808    0.833
 qs_energies_init_hamiltonians        1  3.0    0.000    0.000    0.795    0.795
 transfer_rs2pw_30                   82  9.0    0.320    0.351    0.682    0.782
 build_core_hamiltonian_matrix        1  4.0    0.000    0.000    0.779    0.779
 overlap_condnum                      1  5.0    0.000    0.000    0.775    0.779
 dbm_reserve_blocks                2920 15.9    0.515    0.723    0.515    0.723
 dbt_tas_reserve_blocks_index      2434 15.0    0.002    0.003    0.512    0.717
 mp_waitall_2                      2826 15.9    0.585    0.704    0.585    0.704
 grid_integrate_task_list            82 10.0    0.070    0.691    0.070    0.691
 dbt_tas_copy                       486 13.8    0.271    0.359    0.548    0.690
 rs_grid_zero                       412 11.2    0.524    0.686    0.524    0.686
 dbt_reshape                        274 10.9    0.241    0.359    0.544    0.646
 rs_gather_matrices                  82 10.0    0.001    0.013    0.162    0.631
 get_Sigma_x                          1  7.0    0.000    0.000    0.611    0.611
 compute_Sigma_x                      1  8.0    0.000    0.000    0.611    0.611
 copy_dbcsr_to_fm                   275  8.3    0.003    0.003    0.552    0.596
 calculate_rho0_atom                328  9.0    0.567    0.595    0.567    0.595
 pw_copy                           1225 10.6    0.503    0.588    0.503    0.588
 calculate_rho_atom_coeff            82  6.0    0.056    0.105    0.586    0.588
 pw_derive                          732 11.3    0.517    0.584    0.517    0.584
 setup_time_and_frequency_minim       1  7.0    0.000    0.000    0.522    0.576
 mp_comm_dup                       1379 17.6    0.458    0.571    0.459    0.572
 dbt_tas_mm_3T                      122 15.5    0.000    0.000    0.464    0.561
 mp_sendrecv_dv                   31324 10.0    0.433    0.551    0.433    0.551
 dbt_tas_mm_1N                      120 15.5    0.000    0.000    0.460    0.550
 dbt_tas_communicate_buffer        1124 16.5    0.008    0.017    0.393    0.532
 arnoldi_conjugate_gradient           5  6.0    0.007    0.009    0.527    0.527
 pw_gather_p                        817 11.8    0.435    0.515    0.435    0.515
 dbt_create_matrix                  152  9.0    0.001    0.001    0.488    0.506
 dbt_tas_replicate                  486 14.4    0.032    0.045    0.410    0.498
 compute_V_xc                         1  7.0    0.000    0.000    0.496    0.496
 mp_comm_split_direct              1620 17.2    0.486    0.488    0.486    0.488
 dbt_distribution_new_expert        316 10.5    0.002    0.002    0.458    0.459
 mp_bcast_dm                       1969  9.0    0.449    0.457    0.449    0.457
 check_sparsity_3c                    1  7.0    0.000    0.000    0.454    0.454
 integrate_four_center_getP          82 10.0    0.013    0.017    0.375    0.445
 mp_alltoall_i                     1917 14.5    0.410    0.442    0.410    0.442
 write_matrix                        91  8.0    0.000    0.000    0.351    0.432
 dbcsr_complete_redistribute        589  9.4    0.013    0.015    0.398    0.432
 integrate_four_center_load          82 10.0    0.000    0.000    0.153    0.415
 hfx_load_balance                     1 11.0    0.000    0.000    0.153    0.415
 dbt_tas_reserve_blocks_templat     972 14.4    0.002    0.009    0.279    0.414
 pw_scatter_p                       896 12.1    0.371    0.410    0.371    0.410
 hfx_load_balance_range               1 12.0    0.000    0.000    0.139    0.401
 update_ks_atom                      82  8.0    0.036    0.069    0.369    0.396
 cp_fm_power                          3  8.7    0.001    0.001    0.388    0.394
 pw_poisson_set                      83  9.0    0.001    0.002    0.339    0.390
 multiply_fm_W_MIC_time_with_Mi       2  9.0    0.000    0.000    0.381    0.381
 mp_alltoall_z11v                   328 13.5    0.336    0.378    0.336    0.378
 fm_write                           121  9.0    0.003    0.057    0.269    0.377
 G_occ_vir                          121  8.0    0.001    0.001    0.355    0.373
 compute_QP_energies                  1  7.0    0.000    0.000    0.350    0.351
 mp_cart_create                    3278 14.7    0.311    0.347    0.313    0.349
 cp_fm_write_unformatted            126  9.9    0.266    0.311    0.274    0.347
 mp_isend_dv                      38264 12.2    0.204    0.345    0.204    0.345
 fft_wrap_pw1pw2_30                 164 10.5    0.002    0.003    0.281    0.338
 mp_max_i                          1030  6.7    0.234    0.324    0.234    0.324
 dbt_communicate_buffer             274 11.9    0.002    0.003    0.225    0.316
 mp_alltoall_i22                    870 10.4    0.274    0.310    0.274    0.310
 pw_copy_to_array                   817 11.8    0.243    0.310    0.243    0.310
 dbcsr_sym_matrix_vector_mult      3815  7.0    0.017    0.020    0.260    0.306
 mp_isend_dm3                      3292 11.5    0.098    0.305    0.098    0.305
 Vh_1c_gg_integrals                  82  8.0    0.011    0.268    0.287    0.292
 to_ikp_and_mo                       62  8.0    0.000    0.001    0.288    0.288
 fm_Gamma_ao_to_cfm_ikp_mo           62  9.0    0.000    0.000    0.282    0.285
 dbt_tas_replicate_communicate_     304 15.5    0.001    0.003    0.174    0.274
 dbt_tas_reshape_buffer_obtain      638 15.5    0.146    0.190    0.211    0.262
 mp_irecv_dv                      35972 12.2    0.036    0.256    0.036    0.256
 dbt_tas_reshape_buffer_fill        638 15.5    0.194    0.251    0.194    0.251
 dbcsr_desymmetrize_deep            281  9.3    0.004    0.005    0.223    0.247
 dbt_reserve_blocks_index           824 12.3    0.001    0.002    0.178    0.239
 pw_integral_ab_c1d_c1d_gs           82  9.0    0.108    0.121    0.182    0.238
 get_l_sq_wghts_cos_tf_t_to_w         1  8.0    0.177    0.230    0.177    0.230
 pw_copy_from_array                 896 12.1    0.139    0.224    0.139    0.224
 pw_axpy                            815  9.3    0.188    0.222    0.188    0.222
 dbt_tas_reshape_alltoall           638 15.5    0.001    0.001    0.214    0.220
 mp_cart_sub                        568 10.4    0.195    0.209    0.195    0.209
 yz_to_xz                           164 14.0    0.007    0.021    0.171    0.200
 xz_to_yz                           164 11.0    0.005    0.007    0.177    0.195
 dbcsr_rep_row_to_rep_col_vec      3815  8.0    0.006    0.007    0.090    0.192
 cp_fm_redistribute_end              87  8.1    0.093    0.184    0.095    0.184
 fft_wrap_pw1pw2_10                 164 10.5    0.001    0.001    0.174    0.183
 cp_fm_symm                          81  7.0    0.174    0.182    0.174    0.182
 integrate_four_center_dist_KS       82 10.0    0.014    0.018    0.181    0.181
 transfer_pw2rs_10                   82 12.0    0.047    0.054    0.163    0.178
 get_l_sq_wghts_sin_tf_t_to_w         1  8.0    0.174    0.178    0.174    0.178
 dbt_tas_merge                      182 14.2    0.024    0.034    0.138    0.177
 get_l_sq_wghts_cos_tf_w_to_t         1  8.0    0.169    0.173    0.170    0.174
 qs_init_subsys                       1  2.0    0.002    0.002    0.173    0.173
 dbt_tas_reshape_communicate_bu     638 15.5    0.005    0.007    0.134    0.173
 pw_zero                            488 10.3    0.129    0.170    0.129    0.170
 dbt_tas_replicate_alltoall         304 15.5    0.000    0.000    0.140    0.170
 qs_env_setup                         1  3.0    0.000    0.000    0.160    0.163
 qs_env_rebuild_pw_env                2  3.5    0.000    0.000    0.160    0.162
 pw_env_rebuild                       1  5.0    0.000    0.000    0.160    0.162
 cp_cfm_cholesky_invert              31 11.0    0.156    0.160    0.156    0.160
 dbm_add                            486 14.4    0.106    0.151    0.106    0.151
 dbt_reserve_blocks_index_array     516 12.0    0.001    0.001    0.101    0.149
 mp_rank_compare                   1713 13.0    0.140    0.147    0.140    0.147
 dbt_crop                           212 11.0    0.065    0.104    0.103    0.142
 calculate_dm_sparse                 81  6.0    0.000    0.001    0.134    0.141
 cp_dbcsr_plus_fm_fm_t               81  7.0    0.001    0.001    0.133    0.141
 create_qs_kind_set                   1  2.0    0.000    0.000    0.140    0.141
 read_qs_kind                         4  3.0    0.045    0.067    0.140    0.140
 transfer_rs2pw_10                   82  9.0    0.055    0.062    0.127    0.137
 pw_grid_setup                        4  6.0    0.000    0.000    0.128    0.131
 pw_grid_setup_internal               4  7.0    0.001    0.001    0.128    0.131
 build_3c_integrals_put_dbcsr      1272 10.6    0.036    0.125    0.036    0.125
 dbt_tas_merge_communicate_buff     182 15.2    0.001    0.002    0.093    0.125
 cp_cfm_cholesky_decompose           35 10.7    0.114    0.120    0.114    0.120
 dbcsr_col_vec_to_rep_row          3815  8.0    0.008    0.009    0.074    0.118
 cp_cfm_geeig                         2  7.0    0.000    0.000    0.108    0.108
 mp_send_dv                         126 10.9    0.008    0.107    0.008    0.107
 compute_fm_chi_Gamma_freq           30 10.0    0.000    0.000    0.086    0.101
 alloc_block_3c                     156 10.6    0.003    0.012    0.083    0.100
 copy_fm_to_dbcsr                   314  8.5    0.001    0.001    0.075    0.100
 parser_read_line                 46045  4.0    0.004    0.005    0.095    0.097
 dbcsr_multiply_generic              81  8.0    0.002    0.003    0.093    0.096
 dbt_create_new                     158 10.0    0.001    0.001    0.076    0.093
 parser_read_line_low                58  5.0    0.001    0.020    0.091    0.093
 broadcast_input_information         58  6.0    0.005    0.005    0.090    0.092
 dbcsr_add_d                       6687  7.6    0.002    0.002    0.018    0.090
 dbcsr_add_anytype                 6687  8.6    0.003    0.015    0.016    0.088
 mp_sum_i                           648 14.2    0.079    0.083    0.079    0.083
 fill_fm_Sigma_c_Gamma_time           1  8.0    0.000    0.000    0.083    0.083
 global_matrix_to_local_matrix      152  9.0    0.001    0.001    0.075    0.077
 dos_pdos_ldos                        1  5.0    0.000    0.000    0.070    0.074
 mp_irecv_dm3                      3292 11.5    0.017    0.073    0.017    0.073
 dbcsr_finalize                    9200 11.1    0.005    0.020    0.023    0.071
 rs_scatter_matrices                 82  7.0    0.000    0.001    0.018    0.069
 mp_alltoall_i11v                  2048 10.4    0.037    0.066    0.037    0.066
 send_sizes_1                       152 10.0    0.000    0.000    0.062    0.066
 cube_transpose_2                   164 11.0    0.002    0.004    0.033    0.063
 dbt_pgrid_create_expert            320 11.5    0.001    0.001    0.060    0.062
 cp_fm_uplo_to_full                  90  9.1    0.037    0.061    0.037    0.061
 dbt_copy_nocomm                     30 10.0    0.030    0.040    0.047    0.059
 mp_bcast_b_src                     168  7.6    0.019    0.057    0.019    0.057
 mp_bcast_i_src                     232  7.0    0.052    0.056    0.052    0.056
 create_and_init_bs_env               1  5.0    0.000    0.000    0.052    0.052
 dbcsr_copy                       15949  7.6    0.014    0.041    0.025    0.052
 dbcsr_dot                          163  8.0    0.001    0.002    0.022    0.051
 pw_grid_remap                        4  8.0    0.001    0.001    0.046    0.048
 mp_isendrecv_dv                  62648 12.0    0.025    0.047    0.025    0.047
 mp_comm_free                      6902 13.6    0.042    0.047    0.042    0.047
 mp_sum_im3                           6  9.5    0.046    0.047    0.046    0.047
 diagonalize_ks_matrix                1  6.0    0.000    0.000    0.046    0.046
 cp_fm_geeig_canon                    1  7.0    0.000    0.000    0.046    0.046
 multiply_cannon                     81  9.0    0.005    0.005    0.043    0.046
 calculate_first_density_matrix       1  5.0    0.000    0.000    0.017    0.046
 calculate_atomic_block_dm            1  6.0    0.001    0.001    0.017    0.046
 dbt_tas_mp_comm                    243 12.9    0.002    0.002    0.045    0.045
 scale_and_distribute               164 10.0    0.032    0.043    0.032    0.043
 mp_bcast_dv                       3817  9.0    0.026    0.043    0.026    0.043
 dbcsr_merge_all                   7924 12.1    0.010    0.037    0.013    0.041
 scf_post_calculation_gpw             1  3.0    0.000    0.000    0.040    0.040
 write_available_results              1  4.0    0.000    0.000    0.040    0.040
 write_mo_free_results                1  5.0    0.001    0.002    0.040    0.040
 cube_transpose_1                   164 14.0    0.002    0.002    0.021    0.039
 dbt_nd_mp_comm                     152 10.0    0.000    0.000    0.038    0.039
 compute_MinvVsqrt_Vsqrt              1  9.0    0.000    0.000    0.035    0.039
 make_m2s                           162  9.0    0.002    0.002    0.034    0.036
 local_dbt_to_global_mat             91  8.0    0.000    0.000    0.030    0.036
 multiply_cannon_loop                81 10.0    0.003    0.004    0.030    0.034
 vxc_of_r_new                       324  9.0    0.000    0.005    0.001    0.033
 mp_sum_im                           13  8.4    0.032    0.033    0.032    0.033
 mp_bcast_am_src                     58  7.0    0.027    0.029    0.029    0.031
 mp_recv_dv                        2898 10.9    0.000    0.031    0.000    0.031
 dbcsr_iterator_start             50384  8.9    0.017    0.025    0.021    0.031
 pw_grid_sort                         4  8.0    0.021    0.021    0.029    0.030
 cp_fm_redistribute_start            87  8.1    0.006    0.008    0.020    0.029
 write_mo_set_to_restart             81  5.0    0.001    0.006    0.009    0.028
 dbt_tas_create_new                2345 14.5    0.011    0.028    0.011    0.028
 check_for_restart_files              1  7.0    0.025    0.026    0.025    0.026
 get_fft_scratch                   1714 12.9    0.006    0.008    0.010    0.025
 make_images                        162 10.0    0.002    0.003    0.023    0.025
 compute_max_radius                   1  6.0    0.023    0.024    0.023    0.024
 dbt_tas_reshape_get_coord          638 15.5    0.002    0.024    0.002    0.024
 RI_2c_integral_mat                   4  9.8    0.000    0.000    0.023    0.024
 dbcsr_create_new                 19111  8.9    0.014    0.019    0.019    0.024
 dbt_reserve_blocks_template         30 11.0    0.000    0.000    0.017    0.024
 local_matrix_to_global_matrix       91  9.0    0.000    0.000    0.017    0.023
 hybrid_alltoall_any                443 11.0    0.002    0.002    0.010    0.023
 write_mo_set_low                     5  6.0    0.000    0.000    0.008    0.022
 rs_grid_create                      88  8.8    0.000    0.001    0.001    0.022
 create_fast_col_vec_access        7630  8.0    0.007    0.017    0.012    0.022
 offload_create_buffer               90  9.8    0.000    0.022    0.000    0.022
 dbcsr_iterator_stop              50384  8.9    0.013    0.018    0.015    0.022
 pw_scale                           325  9.5    0.018    0.022    0.018    0.022
 mp_sum_iv                           35  7.8    0.019    0.021    0.019    0.021
 multiply_cannon_metrocomm3        1944 11.0    0.002    0.002    0.013    0.020
 hirshfeld_integration                1  6.0    0.001    0.004    0.020    0.020
 dbt_tas_merge_alltoall             182 15.2    0.000    0.000    0.018    0.019
 compute_proj_mo_on_kind              1  6.0    0.000    0.000    0.019    0.019
 pw_grid_distribute                   4  8.0    0.003    0.004    0.017    0.017
 make_images_sizes                  162 11.0    0.000    0.000    0.015    0.017
 mp_maxloc_dv                      1627  1.0    0.017    0.017    0.017    0.017
 mp_alltoall_i44                    162 12.0    0.015    0.017    0.015    0.017
 dbt_buffer_get_index            215808 16.0    0.013    0.016    0.013    0.016
 mp_max_d                            87  7.0    0.010    0.016    0.010    0.016
 -------------------------------------------------------------------------------

 The number of warnings for this run is : 1
 
 -------------------------------------------------------------------------------
  **** **** ******  **  PROGRAM ENDED AT                 2025-10-25 08:19:41.300
 ***** ** ***  *** **   PROGRAM RAN ON                                    cn0405
 **    ****   ******    PROGRAM RAN BY                                  metdyn02
 ***** **    ** ** **   PROGRAM PROCESS ID                               1628038
  **** **  *******  **  PROGRAM STOPPED IN /scratch/hpc-prf-metdyn/metdyn02_Remi
                                           /04_mol/Benchmark_mol_low_scal/aUKBqs
                                           EOTmq69kFe5R_nOg/5k_set_final_qzvp/WA
                                           FYIL/DZVP/1e-4/9.0
