SIRIUS 7.7.0, git hash: https://api.github.com/repos/electronic-structure/SIRIUS/git/ref/tags/v7.7.0
 DBCSR| CPU Multiplication driver                                           BLAS (U)
 DBCSR| Multrec recursion limit                                              512 (U)
 DBCSR| Multiplication stack size                                           1000 (D)
 DBCSR| Maximum elements for images                                    UNLIMITED (U)
 DBCSR| Multiplicative factor virtual images                                   1 (U)
 DBCSR| Use multiplication densification                                       T (D)
 DBCSR| Multiplication size stacks                                             3 (U)
 DBCSR| Use memory pool for CPU allocation                                     F (U)
 DBCSR| Number of 3D layers                                               SINGLE (U)
 DBCSR| Use MPI memory allocation                                              F (U)
 DBCSR| Use RMA algorithm                                                      F (U)
 DBCSR| Use Communication thread                                               T (U)
 DBCSR| Communication thread load                                             75 (D)
 DBCSR| MPI: My process id                                                     0
 DBCSR| MPI: Number of processes                                             192
 DBCSR| OMP: Current number of threads                                         4
 DBCSR| OMP: Max number of threads                                             4
 DBCSR| Split modifier for TAS multiplication algorithm                  1.0E+00 (U)


  **** **** ******  **  PROGRAM STARTED AT               2025-10-26 20:39:44.036
 ***** ** ***  *** **   PROGRAM STARTED ON                                cn0421
 **    ****   ******    PROGRAM STARTED BY                              metdyn02
 ***** **    ** ** **   PROGRAM PROCESS ID                               2321545
  **** **  *******  **  PROGRAM STARTED IN /scratch/hpc-prf-metdyn/metdyn02_Remi
                                           /04_mol/Benchmark_mol_low_scal/aUKBqs
                                           EOTmq69kFe5R_nOg/5k_set_final_qzvp/DU
                                           NVEN/TZVP/1e-4/3.0

 CP2K| version string:                 CP2K version 2025.2 (Development Version)
 CP2K| source code revision number:                                  git:2a4e9c4
 CP2K| cp2kflags: omp libint fftw3 libxc libgrpp elpa parallel scalapack mpi_f08
 CP2K|             cosma xsmm plumed2 spglib sirius libvori libbqb libvdwxc hdf5
 CP2K| is freely available from                            https://www.cp2k.org/
 CP2K| Program compiled at                      Fri Oct 24 04:52:17 PM CEST 2025
 CP2K| Program compiled on                                                login1
 CP2K| Program compiled for                                                local
 CP2K| Data directory path    /opt/software/pc2/EB-SW/software/CP2K/2025.2-foss-
 CP2K| Input file name                                                    GW.inp

 GLOBAL| Force Environment number                                              1
 GLOBAL| Basis set file name            /pc2/groups/hpc-prf-metdyn/metdyn02_Remi
 GLOBAL| Potential file name            /pc2/groups/hpc-prf-metdyn/metdyn02_Remi
 GLOBAL| MM Potential file name                                     MM_POTENTIAL
 GLOBAL| Coordinate file name                                      __STD_INPUT__
 GLOBAL| Method name                                                        CP2K
 GLOBAL| Project name                                                       MoS2
 GLOBAL| Run type                                                         ENERGY
 GLOBAL| FFT library                                                       FFTW3
 GLOBAL| Diagonalization library                                            ELPA
 GLOBAL| Cholesky decomposition library                                ScaLAPACK
 GLOBAL| DGEMM library                                                      BLAS
 GLOBAL| Minimum number of eigenvectors for ELPA usage                        16
 GLOBAL| Orthonormality check for eigenvectors                          DISABLED
 GLOBAL| Matrix multiplication library                                     COSMA
 GLOBAL| All-to-all communication in single precision                          F
 GLOBAL| FFTs using library dependent lengths                                  F
 GLOBAL| Grid backend                                                       AUTO
 GLOBAL| Global print level                                               MEDIUM
 GLOBAL| MPI I/O enabled                                                       T
 GLOBAL| Total number of message passing processes                           192
 GLOBAL| Number of distributed systems (nodes)                                 4
 GLOBAL| Number of threads for this process                                    4
 GLOBAL| This output is from process                                           0
 GLOBAL| OpenMP stack size per thread (OMP_STACKSIZE)                    default
 GLOBAL| CPU model name                          AMD EPYC 9655 96-Core Processor
 GLOBAL| CPUID                                                              1003

 MEMORY| system memory details [Kb]
 MEMORY|                        rank 0           min           max       average
 MEMORY| MemTotal            791039040     791039040     791039100     791039065
 MEMORY| MemFree             750985580     750985580     751842608     751583188
 MEMORY| Buffers                  3164          3164          3168          3165
 MEMORY| Cached                7813000       7769596       7813000       7787265
 MEMORY| Slab                  2226808       2097592       2226808       2154917
 MEMORY| SReclaimable           936408        892772        936408        907537
 MEMORY| MemLikelyFree       759738152     759738152     760527092     760281155


 *** Fundamental physical constants (SI units) ***

 *** Literature: B. J. Mohr and B. N. Taylor,
 ***             CODATA recommended values of the fundamental physical
 ***             constants: 2006, Web Version 5.1
 ***             http://physics.nist.gov/constants

 Speed of light in vacuum [m/s]                             2.99792458000000E+08
 Magnetic constant or permeability of vacuum [N/A**2]       1.25663706143592E-06
 Electric constant or permittivity of vacuum [F/m]          8.85418781762039E-12
 Planck constant (h) [J*s]                                  6.62606896000000E-34
 Planck constant (h-bar) [J*s]                              1.05457162825177E-34
 Elementary charge [C]                                      1.60217648700000E-19
 Electron mass [kg]                                         9.10938215000000E-31
 Electron g factor [ ]                                     -2.00231930436220E+00
 Proton mass [kg]                                           1.67262163700000E-27
 Fine-structure constant                                    7.29735253760000E-03
 Rydberg constant [1/m]                                     1.09737315685270E+07
 Avogadro constant [1/mol]                                  6.02214179000000E+23
 Boltzmann constant [J/K]                                   1.38065040000000E-23
 Atomic mass unit [kg]                                      1.66053878200000E-27
 Bohr radius [m]                                            5.29177208590000E-11

 *** Conversion factors ***

 [u] -> [a.u.]                                              1.82288848426455E+03
 [Angstrom] -> [Bohr] = [a.u.]                              1.88972613288564E+00
 [a.u.] = [Bohr] -> [Angstrom]                              5.29177208590000E-01
 [a.u.] -> [s]                                              2.41888432650478E-17
 [a.u.] -> [fs]                                             2.41888432650478E-02
 [a.u.] -> [J]                                              4.35974393937059E-18
 [a.u.] -> [N]                                              8.23872205491840E-08
 [a.u.] -> [K]                                              3.15774647902944E+05
 [a.u.] -> [kJ/mol]                                         2.62549961709828E+03
 [a.u.] -> [kcal/mol]                                       6.27509468713739E+02
 [a.u.] -> [Pa]                                             2.94210107994716E+13
 [a.u.] -> [bar]                                            2.94210107994716E+08
 [a.u.] -> [atm]                                            2.90362800883016E+08
 [a.u.] -> [eV]                                             2.72113838565563E+01
 [a.u.] -> [Hz]                                             6.57968392072181E+15
 [a.u.] -> [1/cm] (wave numbers)                            2.19474631370540E+05
 [a.u./Bohr**2] -> [1/cm]                                   5.14048714338585E+03
 

 CELL_TOP| Volume [angstrom^3]:                                     27000.000000
 CELL_TOP| Vector a [angstrom    30.000     0.000     0.000   |a| =    30.000000
 CELL_TOP| Vector b [angstrom     0.000    30.000     0.000   |b| =    30.000000
 CELL_TOP| Vector c [angstrom     0.000     0.000    30.000   |c| =    30.000000
 CELL_TOP| Angle (b,c), alpha [degree]:                                90.000000
 CELL_TOP| Angle (a,c), beta  [degree]:                                90.000000
 CELL_TOP| Angle (a,b), gamma [degree]:                                90.000000
 CELL_TOP| Numerically orthorhombic:                                         YES
 CELL_TOP| Periodicity                                                      NONE

 GENERATE|  Preliminary Number of Bonds generated:                             0
 GENERATE|  Achieved consistency in connectivity generation.

 CELL| Volume [angstrom^3]:                                         27000.000000
 CELL| Vector a [angstrom]:      30.000     0.000     0.000   |a| =    30.000000
 CELL| Vector b [angstrom]:       0.000    30.000     0.000   |b| =    30.000000
 CELL| Vector c [angstrom]:       0.000     0.000    30.000   |c| =    30.000000
 CELL| Angle (b,c), alpha [degree]:                                    90.000000
 CELL| Angle (a,c), beta  [degree]:                                    90.000000
 CELL| Angle (a,b), gamma [degree]:                                    90.000000
 CELL| Numerically orthorhombic:                                             YES
 CELL| Periodicity                                                          NONE

 CELL_REF| Volume [angstrom^3]:                                     27000.000000
 CELL_REF| Vector a [angstrom    30.000     0.000     0.000   |a| =    30.000000
 CELL_REF| Vector b [angstrom     0.000    30.000     0.000   |b| =    30.000000
 CELL_REF| Vector c [angstrom     0.000     0.000    30.000   |c| =    30.000000
 CELL_REF| Angle (b,c), alpha [degree]:                                90.000000
 CELL_REF| Angle (a,c), beta  [degree]:                                90.000000
 CELL_REF| Angle (a,b), gamma [degree]:                                90.000000
 CELL_REF| Numerically orthorhombic:                                         YES
 CELL_REF| Periodicity                                                      NONE

 *******************************************************************************
 *******************************************************************************
 **                                                                           **
 **     #####                         ##              ##                      **
 **    ##   ##            ##          ##              ##                      **
 **   ##     ##                       ##            ######                    **
 **   ##     ##  ##   ##  ##   #####  ##  ##   ####   ##    #####    #####    **
 **   ##     ##  ##   ##  ##  ##      ## ##   ##      ##   ##   ##  ##   ##   **
 **   ##  ## ##  ##   ##  ##  ##      ####     ###    ##   ######   ######    **
 **    ##  ###   ##   ##  ##  ##      ## ##      ##   ##   ##       ##        **
 **     #######   #####   ##   #####  ##  ##  ####    ##    #####   ##        **
 **           ##                                                    ##        **
 **                                                                           **
 **                                                ... make the atoms dance   **
 **                                                                           **
 **            Copyright (C) by CP2K developers group (2000-2025)             **
 **                      J. Chem. Phys. 152, 194103 (2020)                    **
 **                                                                           **
 *******************************************************************************

 DFT| Spin restricted Kohn-Sham (RKS) calculation                            RKS
 DFT| Multiplicity                                                             1
 DFT| Number of spin states                                                    1
 DFT| Charge                                                                   0
 DFT| Self-interaction correction (SIC)                                       NO
 DFT| Cutoffs: density                                              1.000000E-10
 DFT|          gradient                                             1.000000E-10
 DFT|          tau                                                  1.000000E-10
 DFT|          cutoff_smoothing_range                               0.000000E+00
 DFT| XC density smoothing                                                  NONE
 DFT| XC derivatives                                                          PW

 FUNCTIONAL| PBE:
 FUNCTIONAL| J.P.Perdew, K.Burke, M.Ernzerhof, Phys. Rev. Letter, vol. 77, n 18,
 FUNCTIONAL|  pp. 3865-3868, (1996)sx=0.750sc=1.000{spin unpolarized}           


 QS| Method:                                                                GAPW
 QS| Density plane wave grid type                        NON-SPHERICAL FULLSPACE
 QS| Number of grid levels:                                                    4
 QS| Density cutoff [a.u.]:                                                250.0
 QS| Multi grid cutoff [a.u.]: 1) grid level                               250.0
 QS|                           2) grid level                                83.3
 QS|                           3) grid level                                27.8
 QS|                           4) grid level                                 9.3
 QS| Grid level progression factor:                                          3.0
 QS| Relative density cutoff [a.u.]:                                        50.0
 QS| Interaction thresholds: eps_pgf_orb:                                1.0E-12
 QS|                         eps_filter_matrix:                          0.0E+00
 QS|                         eps_core_charge:                            1.0E-14
 QS|                         eps_rho_gspace:                             1.0E-12
 QS|                         eps_rho_rspace:                             1.0E-12
 QS|                         eps_gvg_rspace:                             1.0E-06
 QS|                         eps_ppl:                                    1.0E-02
 QS|                         eps_ppnl:                                   1.0E-08
 QS| GAPW|      One center basis from orbital basis primitives
 QS| GAPW|                   eps_fit:                                    1.0E-04
 QS| GAPW|                   eps_iso:                                    1.0E-12
 QS| GAPW|                   eps_svd:                                    1.0E-08
 QS| GAPW|                   eps_cpc:                                    1.0E-12
 QS| GAPW|   atom-r-grid: quadrature:                                     GC_LOG
 QS| GAPW|      atom-s-grid:  max l :                                          8
 QS| GAPW|      max_l_rho0 :                                                   2


 ATOMIC KIND INFORMATION

  1. Atomic kind: N                                     Number of atoms:       2

     Orbital Basis Set                                        aug-TZVP-MOLOPT-ae

       Number of orbital shell sets:                                           2
       Number of orbital shells:                                              16
       Number of primitive Cartesian functions:                               13
       Number of Cartesian basis functions:                                   71
       Number of spherical basis functions:                                   56
       Norm type:                                                              2

       Normalised Cartesian orbitals:

                        Set   Shell   Orbital            Exponent    Coefficient

                          1       1    1s                0.045000       0.000000
                                                         0.113512       0.014500
                                                         0.322032       0.036074
                                                         0.930550      -0.061635
                                                         2.987378       0.535699
                                                         8.608625       2.378505
                                                        49.270190       0.802518

                          1       2    2s                0.045000       0.000000
                                                         0.113512       0.032692
                                                         0.322032       0.082974
                                                         0.930550       0.396674
                                                         2.987378       0.054918
                                                         8.608625      -0.061481
                                                        49.270190      -0.622920

                          1       3    3s                0.045000       0.000000
                                                         0.113512       0.047996
                                                         0.322032       0.306069
                                                         0.930550      -0.408076
                                                         2.987378      -0.229943
                                                         8.608625      -0.870010
                                                        49.270190      -0.366977

                          1       4    4s                0.045000       0.000000
                                                         0.113512       0.171213
                                                         0.322032      -0.186943
                                                         0.930550      -0.188982
                                                         2.987378       0.637930
                                                         8.608625      -0.961511
                                                        49.270190      -7.166333

                          1       5    5s                0.045000       0.096440
                                                         0.113512      -0.064027
                                                         0.322032      -0.041902
                                                         0.930550       0.111692
                                                         2.987378       0.000000
                                                         8.608625       0.000000
                                                        49.270190       0.000000

                          1       6    2px               0.045000       0.000000
                                                         0.113512       0.006367
                                                         0.322032       0.040684
                                                         0.930550       0.811118
                                                         2.987378       1.750760
                                                         8.608625       1.288759
                                                        49.270190      12.161855
                          1       6    2py               0.045000       0.000000
                                                         0.113512       0.006367
                                                         0.322032       0.040684
                                                         0.930550       0.811118
                                                         2.987378       1.750760
                                                         8.608625       1.288759
                                                        49.270190      12.161855
                          1       6    2pz               0.045000       0.000000
                                                         0.113512       0.006367
                                                         0.322032       0.040684
                                                         0.930550       0.811118
                                                         2.987378       1.750760
                                                         8.608625       1.288759
                                                        49.270190      12.161855

                          1       7    3px               0.045000       0.000000
                                                         0.113512       0.011134
                                                         0.322032       0.344073
                                                         0.930550      -0.153789
                                                         2.987378      -0.764833
                                                         8.608625       0.375399
                                                        49.270190     -28.403920
                          1       7    3py               0.045000       0.000000
                                                         0.113512       0.011134
                                                         0.322032       0.344073
                                                         0.930550      -0.153789
                                                         2.987378      -0.764833
                                                         8.608625       0.375399
                                                        49.270190     -28.403920
                          1       7    3pz               0.045000       0.000000
                                                         0.113512       0.011134
                                                         0.322032       0.344073
                                                         0.930550      -0.153789
                                                         2.987378      -0.764833
                                                         8.608625       0.375399
                                                        49.270190     -28.403920

                          1       8    4px               0.045000       0.000000
                                                         0.113512       0.104427
                                                         0.322032      -0.047567
                                                         0.930550      -0.121777
                                                         2.987378      -0.049280
                                                         8.608625      -0.402261
                                                        49.270190       8.328837
                          1       8    4py               0.045000       0.000000
                                                         0.113512       0.104427
                                                         0.322032      -0.047567
                                                         0.930550      -0.121777
                                                         2.987378      -0.049280
                                                         8.608625      -0.402261
                                                        49.270190       8.328837
                          1       8    4pz               0.045000       0.000000
                                                         0.113512       0.104427
                                                         0.322032      -0.047567
                                                         0.930550      -0.121777
                                                         2.987378      -0.049280
                                                         8.608625      -0.402261
                                                        49.270190       8.328837

                          1       9    5px               0.045000       0.002493
                                                         0.113512      -0.112828
                                                         0.322032       0.052724
                                                         0.930550       0.295283
                                                         2.987378       0.000000
                                                         8.608625       0.000000
                                                        49.270190       0.000000
                          1       9    5py               0.045000       0.002493
                                                         0.113512      -0.112828
                                                         0.322032       0.052724
                                                         0.930550       0.295283
                                                         2.987378       0.000000
                                                         8.608625       0.000000
                                                        49.270190       0.000000
                          1       9    5pz               0.045000       0.002493
                                                         0.113512      -0.112828
                                                         0.322032       0.052724
                                                         0.930550       0.295283
                                                         2.987378       0.000000
                                                         8.608625       0.000000
                                                        49.270190       0.000000

                          1      10    3dx2              0.045000       0.000000
                                                         0.113512       0.008426
                                                         0.322032       0.004138
                                                         0.930550       0.975526
                                                         2.987378       4.861216
                                                         8.608625     -15.504622
                                                        49.270190     -47.156995
                          1      10    3dxy              0.045000       0.000000
                                                         0.113512       0.014594
                                                         0.322032       0.007167
                                                         0.930550       1.689661
                                                         2.987378       8.419873
                                                         8.608625     -26.854794
                                                        49.270190     -81.678311
                          1      10    3dxz              0.045000       0.000000
                                                         0.113512       0.014594
                                                         0.322032       0.007167
                                                         0.930550       1.689661
                                                         2.987378       8.419873
                                                         8.608625     -26.854794
                                                        49.270190     -81.678311
                          1      10    3dy2              0.045000       0.000000
                                                         0.113512       0.008426
                                                         0.322032       0.004138
                                                         0.930550       0.975526
                                                         2.987378       4.861216
                                                         8.608625     -15.504622
                                                        49.270190     -47.156995
                          1      10    3dyz              0.045000       0.000000
                                                         0.113512       0.014594
                                                         0.322032       0.007167
                                                         0.930550       1.689661
                                                         2.987378       8.419873
                                                         8.608625     -26.854794
                                                        49.270190     -81.678311
                          1      10    3dz2              0.045000       0.000000
                                                         0.113512       0.008426
                                                         0.322032       0.004138
                                                         0.930550       0.975526
                                                         2.987378       4.861216
                                                         8.608625     -15.504622
                                                        49.270190     -47.156995

                          1      11    4dx2              0.045000       0.000000
                                                         0.113512      -0.007657
                                                         0.322032       0.207542
                                                         0.930550       0.469670
                                                         2.987378      -3.348764
                                                         8.608625      17.703387
                                                        49.270190      69.517765
                          1      11    4dxy              0.045000       0.000000
                                                         0.113512      -0.013263
                                                         0.322032       0.359472
                                                         0.930550       0.813493
                                                         2.987378      -5.800229
                                                         8.608625      30.663165
                                                        49.270190     120.408301
                          1      11    4dxz              0.045000       0.000000
                                                         0.113512      -0.013263
                                                         0.322032       0.359472
                                                         0.930550       0.813493
                                                         2.987378      -5.800229
                                                         8.608625      30.663165
                                                        49.270190     120.408301
                          1      11    4dy2              0.045000       0.000000
                                                         0.113512      -0.007657
                                                         0.322032       0.207542
                                                         0.930550       0.469670
                                                         2.987378      -3.348764
                                                         8.608625      17.703387
                                                        49.270190      69.517765
                          1      11    4dyz              0.045000       0.000000
                                                         0.113512      -0.013263
                                                         0.322032       0.359472
                                                         0.930550       0.813493
                                                         2.987378      -5.800229
                                                         8.608625      30.663165
                                                        49.270190     120.408301
                          1      11    4dz2              0.045000       0.000000
                                                         0.113512      -0.007657
                                                         0.322032       0.207542
                                                         0.930550       0.469670
                                                         2.987378      -3.348764
                                                         8.608625      17.703387
                                                        49.270190      69.517765

                          1      12    5dx2              0.045000      -0.000996
                                                         0.113512       0.002353
                                                         0.322032       0.164897
                                                         0.930550       0.509235
                                                         2.987378       0.000000
                                                         8.608625       0.000000
                                                        49.270190       0.000000
                          1      12    5dxy              0.045000      -0.001726
                                                         0.113512       0.004075
                                                         0.322032       0.285610
                                                         0.930550       0.882020
                                                         2.987378       0.000000
                                                         8.608625       0.000000
                                                        49.270190       0.000000
                          1      12    5dxz              0.045000      -0.001726
                                                         0.113512       0.004075
                                                         0.322032       0.285610
                                                         0.930550       0.882020
                                                         2.987378       0.000000
                                                         8.608625       0.000000
                                                        49.270190       0.000000
                          1      12    5dy2              0.045000      -0.000996
                                                         0.113512       0.002353
                                                         0.322032       0.164897
                                                         0.930550       0.509235
                                                         2.987378       0.000000
                                                         8.608625       0.000000
                                                        49.270190       0.000000
                          1      12    5dyz              0.045000      -0.001726
                                                         0.113512       0.004075
                                                         0.322032       0.285610
                                                         0.930550       0.882020
                                                         2.987378       0.000000
                                                         8.608625       0.000000
                                                        49.270190       0.000000
                          1      12    5dz2              0.045000      -0.000996
                                                         0.113512       0.002353
                                                         0.322032       0.164897
                                                         0.930550       0.509235
                                                         2.987378       0.000000
                                                         8.608625       0.000000
                                                        49.270190       0.000000

                          1      13    4fx3              0.045000       0.000000
                                                         0.113512       0.000350
                                                         0.322032       0.026408
                                                         0.930550       1.022795
                                                         2.987378       1.277764
                                                         8.608625      -7.108652
                                                        49.270190     240.939937
                          1      13    4fx2y             0.045000       0.000000
                                                         0.113512       0.000782
                                                         0.322032       0.059050
                                                         0.930550       2.287038
                                                         2.987378       2.857166
                                                         8.608625     -15.895429
                                                        49.270190     538.758077
                          1      13    4fx2z             0.045000       0.000000
                                                         0.113512       0.000782
                                                         0.322032       0.059050
                                                         0.930550       2.287038
                                                         2.987378       2.857166
                                                         8.608625     -15.895429
                                                        49.270190     538.758077
                          1      13    4fxy2             0.045000       0.000000
                                                         0.113512       0.000782
                                                         0.322032       0.059050
                                                         0.930550       2.287038
                                                         2.987378       2.857166
                                                         8.608625     -15.895429
                                                        49.270190     538.758077
                          1      13    4fxyz             0.045000       0.000000
                                                         0.113512       0.001354
                                                         0.322032       0.102278
                                                         0.930550       3.961267
                                                         2.987378       4.948757
                                                         8.608625     -27.531691
                                                        49.270190     933.156362
                          1      13    4fxz2             0.045000       0.000000
                                                         0.113512       0.000782
                                                         0.322032       0.059050
                                                         0.930550       2.287038
                                                         2.987378       2.857166
                                                         8.608625     -15.895429
                                                        49.270190     538.758077
                          1      13    4fy3              0.045000       0.000000
                                                         0.113512       0.000350
                                                         0.322032       0.026408
                                                         0.930550       1.022795
                                                         2.987378       1.277764
                                                         8.608625      -7.108652
                                                        49.270190     240.939937
                          1      13    4fy2z             0.045000       0.000000
                                                         0.113512       0.000782
                                                         0.322032       0.059050
                                                         0.930550       2.287038
                                                         2.987378       2.857166
                                                         8.608625     -15.895429
                                                        49.270190     538.758077
                          1      13    4fyz2             0.045000       0.000000
                                                         0.113512       0.000782
                                                         0.322032       0.059050
                                                         0.930550       2.287038
                                                         2.987378       2.857166
                                                         8.608625     -15.895429
                                                        49.270190     538.758077
                          1      13    4fz3              0.045000       0.000000
                                                         0.113512       0.000350
                                                         0.322032       0.026408
                                                         0.930550       1.022795
                                                         2.987378       1.277764
                                                         8.608625      -7.108652
                                                        49.270190     240.939937

                          1      14    5fx3              0.045000       0.000031
                                                         0.113512       0.000543
                                                         0.322032       0.086041
                                                         0.930550       0.419256
                                                         2.987378       0.000000
                                                         8.608625       0.000000
                                                        49.270190       0.000000
                          1      14    5fx2y             0.045000       0.000070
                                                         0.113512       0.001214
                                                         0.322032       0.192393
                                                         0.930550       0.937485
                                                         2.987378       0.000000
                                                         8.608625       0.000000
                                                        49.270190       0.000000
                          1      14    5fx2z             0.045000       0.000070
                                                         0.113512       0.001214
                                                         0.322032       0.192393
                                                         0.930550       0.937485
                                                         2.987378       0.000000
                                                         8.608625       0.000000
                                                        49.270190       0.000000
                          1      14    5fxy2             0.045000       0.000070
                                                         0.113512       0.001214
                                                         0.322032       0.192393
                                                         0.930550       0.937485
                                                         2.987378       0.000000
                                                         8.608625       0.000000
                                                        49.270190       0.000000
                          1      14    5fxyz             0.045000       0.000121
                                                         0.113512       0.002103
                                                         0.322032       0.333234
                                                         0.930550       1.623771
                                                         2.987378       0.000000
                                                         8.608625       0.000000
                                                        49.270190       0.000000
                          1      14    5fxz2             0.045000       0.000070
                                                         0.113512       0.001214
                                                         0.322032       0.192393
                                                         0.930550       0.937485
                                                         2.987378       0.000000
                                                         8.608625       0.000000
                                                        49.270190       0.000000
                          1      14    5fy3              0.045000       0.000031
                                                         0.113512       0.000543
                                                         0.322032       0.086041
                                                         0.930550       0.419256
                                                         2.987378       0.000000
                                                         8.608625       0.000000
                                                        49.270190       0.000000
                          1      14    5fy2z             0.045000       0.000070
                                                         0.113512       0.001214
                                                         0.322032       0.192393
                                                         0.930550       0.937485
                                                         2.987378       0.000000
                                                         8.608625       0.000000
                                                        49.270190       0.000000
                          1      14    5fyz2             0.045000       0.000070
                                                         0.113512       0.001214
                                                         0.322032       0.192393
                                                         0.930550       0.937485
                                                         2.987378       0.000000
                                                         8.608625       0.000000
                                                        49.270190       0.000000
                          1      14    5fz3              0.045000       0.000031
                                                         0.113512       0.000543
                                                         0.322032       0.086041
                                                         0.930550       0.419256
                                                         2.987378       0.000000
                                                         8.608625       0.000000
                                                        49.270190       0.000000

                          1      15    5gx4              0.045000       0.000051
                                                         0.113512       0.002105
                                                         0.322032       0.008605
                                                         0.930550       0.058205
                                                         2.987378       0.000000
                                                         8.608625       0.000000
                                                        49.270190       0.000000
                          1      15    5gx3y             0.045000       0.000134
                                                         0.113512       0.005569
                                                         0.322032       0.022768
                                                         0.930550       0.153995
                                                         2.987378       0.000000
                                                         8.608625       0.000000
                                                        49.270190       0.000000
                          1      15    5gx3z             0.045000       0.000134
                                                         0.113512       0.005569
                                                         0.322032       0.022768
                                                         0.930550       0.153995
                                                         2.987378       0.000000
                                                         8.608625       0.000000
                                                        49.270190       0.000000
                          1      15    5gx2y2            0.045000       0.000173
                                                         0.113512       0.007189
                                                         0.322032       0.029393
                                                         0.930550       0.198807
                                                         2.987378       0.000000
                                                         8.608625       0.000000
                                                        49.270190       0.000000
                          1      15    5gx2yz            0.045000       0.000300
                                                         0.113512       0.012452
                                                         0.322032       0.050910
                                                         0.930550       0.344344
                                                         2.987378       0.000000
                                                         8.608625       0.000000
                                                        49.270190       0.000000
                          1      15    5gx2z2            0.045000       0.000173
                                                         0.113512       0.007189
                                                         0.322032       0.029393
                                                         0.930550       0.198807
                                                         2.987378       0.000000
                                                         8.608625       0.000000
                                                        49.270190       0.000000
                          1      15    5gxy3             0.045000       0.000134
                                                         0.113512       0.005569
                                                         0.322032       0.022768
                                                         0.930550       0.153995
                                                         2.987378       0.000000
                                                         8.608625       0.000000
                                                        49.270190       0.000000
                          1      15    5gxy2z            0.045000       0.000300
                                                         0.113512       0.012452
                                                         0.322032       0.050910
                                                         0.930550       0.344344
                                                         2.987378       0.000000
                                                         8.608625       0.000000
                                                        49.270190       0.000000
                          1      15    5gxyz2            0.045000       0.000300
                                                         0.113512       0.012452
                                                         0.322032       0.050910
                                                         0.930550       0.344344
                                                         2.987378       0.000000
                                                         8.608625       0.000000
                                                        49.270190       0.000000
                          1      15    5gxz3             0.045000       0.000134
                                                         0.113512       0.005569
                                                         0.322032       0.022768
                                                         0.930550       0.153995
                                                         2.987378       0.000000
                                                         8.608625       0.000000
                                                        49.270190       0.000000
                          1      15    5gy4              0.045000       0.000051
                                                         0.113512       0.002105
                                                         0.322032       0.008605
                                                         0.930550       0.058205
                                                         2.987378       0.000000
                                                         8.608625       0.000000
                                                        49.270190       0.000000
                          1      15    5gy3z             0.045000       0.000134
                                                         0.113512       0.005569
                                                         0.322032       0.022768
                                                         0.930550       0.153995
                                                         2.987378       0.000000
                                                         8.608625       0.000000
                                                        49.270190       0.000000
                          1      15    5gy2z2            0.045000       0.000173
                                                         0.113512       0.007189
                                                         0.322032       0.029393
                                                         0.930550       0.198807
                                                         2.987378       0.000000
                                                         8.608625       0.000000
                                                        49.270190       0.000000
                          1      15    5gyz3             0.045000       0.000134
                                                         0.113512       0.005569
                                                         0.322032       0.022768
                                                         0.930550       0.153995
                                                         2.987378       0.000000
                                                         8.608625       0.000000
                                                        49.270190       0.000000
                          1      15    5gz4              0.045000       0.000051
                                                         0.113512       0.002105
                                                         0.322032       0.008605
                                                         0.930550       0.058205
                                                         2.987378       0.000000
                                                         8.608625       0.000000
                                                        49.270190       0.000000

                          2       1    1s            19730.758242       0.654856
                                                      2958.006020       1.769548
                                                       673.387518       2.322723
                                                       190.675174       4.547417
                                                        62.366448       3.527190
                                                        22.833858       5.352733

     RI Auxiliary Basis Set             RI_aug-TZVP-MOLOPT-ae_N_RI_081_s_p_d_f_g

       Number of orbital shell sets:                                          21
       Number of orbital shells:                                              21
       Number of primitive Cartesian functions:                               21
       Number of Cartesian basis functions:                                  106
       Number of spherical basis functions:                                   81
       Norm type:                                                              2

       Normalised Cartesian orbitals:

                        Set   Shell   Orbital            Exponent    Coefficient

                          1       1    1s                0.346958       0.322194

                          2       1    8px               0.414434       0.473980
                          2       1    8py               0.414434       0.473980
                          2       1    8pz               0.414434       0.473980

                          3       1   13dx2              0.464763       0.430591
                          3       1   13dxy              0.464763       0.745806
                          3       1   13dxz              0.464763       0.745806
                          3       1   13dy2              0.464763       0.430591
                          3       1   13dyz              0.464763       0.745806
                          3       1   13dz2              0.464763       0.430591

                          4       1   20gx4              0.553200       0.218454
                          4       1   20gx3y             0.553200       0.577976
                          4       1   20gx3z             0.553200       0.577976
                          4       1   20gx2y2            0.553200       0.746164
                          4       1   20gx2yz            0.553200       1.292394
                          4       1   20gx2z2            0.553200       0.746164
                          4       1   20gxy3             0.553200       0.577976
                          4       1   20gxy2z            0.553200       1.292394
                          4       1   20gxyz2            0.553200       1.292394
                          4       1   20gxz3             0.553200       0.577976
                          4       1   20gy4              0.553200       0.218454
                          4       1   20gy3z             0.553200       0.577976
                          4       1   20gy2z2            0.553200       0.746164
                          4       1   20gyz3             0.553200       0.577976
                          4       1   20gz4              0.553200       0.218454

                          5       1   17fx3              0.646224       0.551210
                          5       1   17fx2y             0.646224       1.232543
                          5       1   17fx2z             0.646224       1.232543
                          5       1   17fxy2             0.646224       1.232543
                          5       1   17fxyz             0.646224       2.134827
                          5       1   17fxz2             0.646224       1.232543
                          5       1   17fy3              0.646224       0.551210
                          5       1   17fy2z             0.646224       1.232543
                          5       1   17fyz2             0.646224       1.232543
                          5       1   17fz3              0.646224       0.551210

                          6       1    2s                0.747311       0.572844

                          7       1    9px               1.051881       1.518442
                          7       1    9py               1.051881       1.518442
                          7       1    9pz               1.051881       1.518442

                          8       1   18fx3              1.097071       1.813355
                          8       1   18fx2y             1.097071       4.054785
                          8       1   18fx2z             1.097071       4.054785
                          8       1   18fxy2             1.097071       4.054785
                          8       1   18fxyz             1.097071       7.023094
                          8       1   18fxz2             1.097071       4.054785
                          8       1   18fy3              1.097071       1.813355
                          8       1   18fy2z             1.097071       4.054785
                          8       1   18fyz2             1.097071       4.054785
                          8       1   18fz3              1.097071       1.813355

                          9       1   14dx2              1.205962       2.284247
                          9       1   14dxy              1.205962       3.956432
                          9       1   14dxz              1.205962       3.956432
                          9       1   14dy2              1.205962       2.284247
                          9       1   14dyz              1.205962       3.956432
                          9       1   14dz2              1.205962       2.284247

                         10       1    3s                1.541994       0.986216

                         11       1   21gx4              1.747210       5.162789
                         11       1   21gx3y             1.747210      13.659455
                         11       1   21gx3z             1.747210      13.659455
                         11       1   21gx2y2            1.747210      17.634281
                         11       1   21gx2yz            1.747210      30.543470
                         11       1   21gx2z2            1.747210      17.634281
                         11       1   21gxy3             1.747210      13.659455
                         11       1   21gxy2z            1.747210      30.543470
                         11       1   21gxyz2            1.747210      30.543470
                         11       1   21gxz3             1.747210      13.659455
                         11       1   21gy4              1.747210       5.162789
                         11       1   21gy3z             1.747210      13.659455
                         11       1   21gy2z2            1.747210      17.634281
                         11       1   21gyz3             1.747210      13.659455
                         11       1   21gz4              1.747210       5.162789

                         12       1   15dx2              2.450305       7.898503
                         12       1   15dxy              2.450305      13.680608
                         12       1   15dxz              2.450305      13.680608
                         12       1   15dy2              2.450305       7.898503
                         12       1   15dyz              2.450305      13.680608
                         12       1   15dz2              2.450305       7.898503

                         13       1   19fx3              2.631861      12.988108
                         13       1   19fx2y             2.631861      29.042293
                         13       1   19fx2z             2.631861      29.042293
                         13       1   19fxy2             2.631861      29.042293
                         13       1   19fxyz             2.631861      50.302727
                         13       1   19fxz2             2.631861      29.042293
                         13       1   19fy3              2.631861      12.988108
                         13       1   19fy2z             2.631861      29.042293
                         13       1   19fyz2             2.631861      29.042293
                         13       1   19fz3              2.631861      12.988108

                         14       1   10px               3.048612       5.742061
                         14       1   10py               3.048612       5.742061
                         14       1   10pz               3.048612       5.742061

                         15       1    4s                4.700737       2.275279

                         16       1   16dx2              7.911591      61.428673
                         16       1   16dxy              7.911591     106.397583
                         16       1   16dxz              7.911591     106.397583
                         16       1   16dy2              7.911591      61.428673
                         16       1   16dyz              7.911591     106.397583
                         16       1   16dz2              7.911591      61.428673

                         17       1   11px               8.472972      20.605579
                         17       1   11py               8.472972      20.605579
                         17       1   11pz               8.472972      20.605579

                         18       1    5s               14.486196       5.292073

                         19       1   12px              21.881384      67.458016
                         19       1   12py              21.881384      67.458016
                         19       1   12pz              21.881384      67.458016

                         20       1    6s               40.278996      11.395124

                         21       1    7s              107.835685      23.849648

       Atomic covalent radius [Angstrom]:                                  0.750

       Atomic van der Waals radius [Angstrom]:                             1.550

     The atoms of this atomic kind are PAW atoms (GAPW):
       Hard Gaussian function radius:                                      1.512
       Rho0 radius:                                                        1.512
       Maximum GTO radius used for PAW projector construction:            24.566

     GAPW Soft Basis Set                                 aug-TZVP-MOLOPT-ae_soft

       Number of orbital shell sets:                                           2
       Number of orbital shells:                                              16
       Number of primitive Cartesian functions:                                5
       Number of Cartesian basis functions:                                   71
       Number of spherical basis functions:                                   56
       Norm type:                                                              2

       Normalised Cartesian orbitals:

                        Set   Shell   Orbital            Exponent    Coefficient

                          1       1    1s                0.045000       0.000000
                                                         0.113512       0.014500
                                                         0.322032       0.036074
                                                         0.930550      -0.061635
                                                         2.987378       0.535699

                          1       2    2s                0.045000       0.000000
                                                         0.113512       0.032692
                                                         0.322032       0.082974
                                                         0.930550       0.396674
                                                         2.987378       0.054918

                          1       3    3s                0.045000       0.000000
                                                         0.113512       0.047996
                                                         0.322032       0.306069
                                                         0.930550      -0.408076
                                                         2.987378      -0.229943

                          1       4    4s                0.045000       0.000000
                                                         0.113512       0.171213
                                                         0.322032      -0.186943
                                                         0.930550      -0.188982
                                                         2.987378       0.637930

                          1       5    5s                0.045000       0.096440
                                                         0.113512      -0.064027
                                                         0.322032      -0.041902
                                                         0.930550       0.111692
                                                         2.987378       0.000000

                          1       6    2px               0.045000       0.000000
                                                         0.113512       0.006367
                                                         0.322032       0.040684
                                                         0.930550       0.811118
                                                         2.987378       1.750760
                          1       6    2py               0.045000       0.000000
                                                         0.113512       0.006367
                                                         0.322032       0.040684
                                                         0.930550       0.811118
                                                         2.987378       1.750760
                          1       6    2pz               0.045000       0.000000
                                                         0.113512       0.006367
                                                         0.322032       0.040684
                                                         0.930550       0.811118
                                                         2.987378       1.750760

                          1       7    3px               0.045000       0.000000
                                                         0.113512       0.011134
                                                         0.322032       0.344073
                                                         0.930550      -0.153789
                                                         2.987378      -0.764833
                          1       7    3py               0.045000       0.000000
                                                         0.113512       0.011134
                                                         0.322032       0.344073
                                                         0.930550      -0.153789
                                                         2.987378      -0.764833
                          1       7    3pz               0.045000       0.000000
                                                         0.113512       0.011134
                                                         0.322032       0.344073
                                                         0.930550      -0.153789
                                                         2.987378      -0.764833

                          1       8    4px               0.045000       0.000000
                                                         0.113512       0.104427
                                                         0.322032      -0.047567
                                                         0.930550      -0.121777
                                                         2.987378      -0.049280
                          1       8    4py               0.045000       0.000000
                                                         0.113512       0.104427
                                                         0.322032      -0.047567
                                                         0.930550      -0.121777
                                                         2.987378      -0.049280
                          1       8    4pz               0.045000       0.000000
                                                         0.113512       0.104427
                                                         0.322032      -0.047567
                                                         0.930550      -0.121777
                                                         2.987378      -0.049280

                          1       9    5px               0.045000       0.002493
                                                         0.113512      -0.112828
                                                         0.322032       0.052724
                                                         0.930550       0.295283
                                                         2.987378       0.000000
                          1       9    5py               0.045000       0.002493
                                                         0.113512      -0.112828
                                                         0.322032       0.052724
                                                         0.930550       0.295283
                                                         2.987378       0.000000
                          1       9    5pz               0.045000       0.002493
                                                         0.113512      -0.112828
                                                         0.322032       0.052724
                                                         0.930550       0.295283
                                                         2.987378       0.000000

                          1      10    3dx2              0.045000       0.000000
                                                         0.113512       0.008426
                                                         0.322032       0.004138
                                                         0.930550       0.975526
                                                         2.987378       4.861216
                          1      10    3dxy              0.045000       0.000000
                                                         0.113512       0.014594
                                                         0.322032       0.007167
                                                         0.930550       1.689661
                                                         2.987378       8.419873
                          1      10    3dxz              0.045000       0.000000
                                                         0.113512       0.014594
                                                         0.322032       0.007167
                                                         0.930550       1.689661
                                                         2.987378       8.419873
                          1      10    3dy2              0.045000       0.000000
                                                         0.113512       0.008426
                                                         0.322032       0.004138
                                                         0.930550       0.975526
                                                         2.987378       4.861216
                          1      10    3dyz              0.045000       0.000000
                                                         0.113512       0.014594
                                                         0.322032       0.007167
                                                         0.930550       1.689661
                                                         2.987378       8.419873
                          1      10    3dz2              0.045000       0.000000
                                                         0.113512       0.008426
                                                         0.322032       0.004138
                                                         0.930550       0.975526
                                                         2.987378       4.861216

                          1      11    4dx2              0.045000       0.000000
                                                         0.113512      -0.007657
                                                         0.322032       0.207542
                                                         0.930550       0.469670
                                                         2.987378      -3.348764
                          1      11    4dxy              0.045000       0.000000
                                                         0.113512      -0.013263
                                                         0.322032       0.359472
                                                         0.930550       0.813493
                                                         2.987378      -5.800229
                          1      11    4dxz              0.045000       0.000000
                                                         0.113512      -0.013263
                                                         0.322032       0.359472
                                                         0.930550       0.813493
                                                         2.987378      -5.800229
                          1      11    4dy2              0.045000       0.000000
                                                         0.113512      -0.007657
                                                         0.322032       0.207542
                                                         0.930550       0.469670
                                                         2.987378      -3.348764
                          1      11    4dyz              0.045000       0.000000
                                                         0.113512      -0.013263
                                                         0.322032       0.359472
                                                         0.930550       0.813493
                                                         2.987378      -5.800229
                          1      11    4dz2              0.045000       0.000000
                                                         0.113512      -0.007657
                                                         0.322032       0.207542
                                                         0.930550       0.469670
                                                         2.987378      -3.348764

                          1      12    5dx2              0.045000      -0.000996
                                                         0.113512       0.002353
                                                         0.322032       0.164897
                                                         0.930550       0.509235
                                                         2.987378       0.000000
                          1      12    5dxy              0.045000      -0.001726
                                                         0.113512       0.004075
                                                         0.322032       0.285610
                                                         0.930550       0.882020
                                                         2.987378       0.000000
                          1      12    5dxz              0.045000      -0.001726
                                                         0.113512       0.004075
                                                         0.322032       0.285610
                                                         0.930550       0.882020
                                                         2.987378       0.000000
                          1      12    5dy2              0.045000      -0.000996
                                                         0.113512       0.002353
                                                         0.322032       0.164897
                                                         0.930550       0.509235
                                                         2.987378       0.000000
                          1      12    5dyz              0.045000      -0.001726
                                                         0.113512       0.004075
                                                         0.322032       0.285610
                                                         0.930550       0.882020
                                                         2.987378       0.000000
                          1      12    5dz2              0.045000      -0.000996
                                                         0.113512       0.002353
                                                         0.322032       0.164897
                                                         0.930550       0.509235
                                                         2.987378       0.000000

                          1      13    4fx3              0.045000       0.000000
                                                         0.113512       0.000350
                                                         0.322032       0.026408
                                                         0.930550       1.022795
                                                         2.987378       1.277764
                          1      13    4fx2y             0.045000       0.000000
                                                         0.113512       0.000782
                                                         0.322032       0.059050
                                                         0.930550       2.287038
                                                         2.987378       2.857166
                          1      13    4fx2z             0.045000       0.000000
                                                         0.113512       0.000782
                                                         0.322032       0.059050
                                                         0.930550       2.287038
                                                         2.987378       2.857166
                          1      13    4fxy2             0.045000       0.000000
                                                         0.113512       0.000782
                                                         0.322032       0.059050
                                                         0.930550       2.287038
                                                         2.987378       2.857166
                          1      13    4fxyz             0.045000       0.000000
                                                         0.113512       0.001354
                                                         0.322032       0.102278
                                                         0.930550       3.961267
                                                         2.987378       4.948757
                          1      13    4fxz2             0.045000       0.000000
                                                         0.113512       0.000782
                                                         0.322032       0.059050
                                                         0.930550       2.287038
                                                         2.987378       2.857166
                          1      13    4fy3              0.045000       0.000000
                                                         0.113512       0.000350
                                                         0.322032       0.026408
                                                         0.930550       1.022795
                                                         2.987378       1.277764
                          1      13    4fy2z             0.045000       0.000000
                                                         0.113512       0.000782
                                                         0.322032       0.059050
                                                         0.930550       2.287038
                                                         2.987378       2.857166
                          1      13    4fyz2             0.045000       0.000000
                                                         0.113512       0.000782
                                                         0.322032       0.059050
                                                         0.930550       2.287038
                                                         2.987378       2.857166
                          1      13    4fz3              0.045000       0.000000
                                                         0.113512       0.000350
                                                         0.322032       0.026408
                                                         0.930550       1.022795
                                                         2.987378       1.277764

                          1      14    5fx3              0.045000       0.000031
                                                         0.113512       0.000543
                                                         0.322032       0.086041
                                                         0.930550       0.419256
                                                         2.987378       0.000000
                          1      14    5fx2y             0.045000       0.000070
                                                         0.113512       0.001214
                                                         0.322032       0.192393
                                                         0.930550       0.937485
                                                         2.987378       0.000000
                          1      14    5fx2z             0.045000       0.000070
                                                         0.113512       0.001214
                                                         0.322032       0.192393
                                                         0.930550       0.937485
                                                         2.987378       0.000000
                          1      14    5fxy2             0.045000       0.000070
                                                         0.113512       0.001214
                                                         0.322032       0.192393
                                                         0.930550       0.937485
                                                         2.987378       0.000000
                          1      14    5fxyz             0.045000       0.000121
                                                         0.113512       0.002103
                                                         0.322032       0.333234
                                                         0.930550       1.623771
                                                         2.987378       0.000000
                          1      14    5fxz2             0.045000       0.000070
                                                         0.113512       0.001214
                                                         0.322032       0.192393
                                                         0.930550       0.937485
                                                         2.987378       0.000000
                          1      14    5fy3              0.045000       0.000031
                                                         0.113512       0.000543
                                                         0.322032       0.086041
                                                         0.930550       0.419256
                                                         2.987378       0.000000
                          1      14    5fy2z             0.045000       0.000070
                                                         0.113512       0.001214
                                                         0.322032       0.192393
                                                         0.930550       0.937485
                                                         2.987378       0.000000
                          1      14    5fyz2             0.045000       0.000070
                                                         0.113512       0.001214
                                                         0.322032       0.192393
                                                         0.930550       0.937485
                                                         2.987378       0.000000
                          1      14    5fz3              0.045000       0.000031
                                                         0.113512       0.000543
                                                         0.322032       0.086041
                                                         0.930550       0.419256
                                                         2.987378       0.000000

                          1      15    5gx4              0.045000       0.000051
                                                         0.113512       0.002105
                                                         0.322032       0.008605
                                                         0.930550       0.058205
                                                         2.987378       0.000000
                          1      15    5gx3y             0.045000       0.000134
                                                         0.113512       0.005569
                                                         0.322032       0.022768
                                                         0.930550       0.153995
                                                         2.987378       0.000000
                          1      15    5gx3z             0.045000       0.000134
                                                         0.113512       0.005569
                                                         0.322032       0.022768
                                                         0.930550       0.153995
                                                         2.987378       0.000000
                          1      15    5gx2y2            0.045000       0.000173
                                                         0.113512       0.007189
                                                         0.322032       0.029393
                                                         0.930550       0.198807
                                                         2.987378       0.000000
                          1      15    5gx2yz            0.045000       0.000300
                                                         0.113512       0.012452
                                                         0.322032       0.050910
                                                         0.930550       0.344344
                                                         2.987378       0.000000
                          1      15    5gx2z2            0.045000       0.000173
                                                         0.113512       0.007189
                                                         0.322032       0.029393
                                                         0.930550       0.198807
                                                         2.987378       0.000000
                          1      15    5gxy3             0.045000       0.000134
                                                         0.113512       0.005569
                                                         0.322032       0.022768
                                                         0.930550       0.153995
                                                         2.987378       0.000000
                          1      15    5gxy2z            0.045000       0.000300
                                                         0.113512       0.012452
                                                         0.322032       0.050910
                                                         0.930550       0.344344
                                                         2.987378       0.000000
                          1      15    5gxyz2            0.045000       0.000300
                                                         0.113512       0.012452
                                                         0.322032       0.050910
                                                         0.930550       0.344344
                                                         2.987378       0.000000
                          1      15    5gxz3             0.045000       0.000134
                                                         0.113512       0.005569
                                                         0.322032       0.022768
                                                         0.930550       0.153995
                                                         2.987378       0.000000
                          1      15    5gy4              0.045000       0.000051
                                                         0.113512       0.002105
                                                         0.322032       0.008605
                                                         0.930550       0.058205
                                                         2.987378       0.000000
                          1      15    5gy3z             0.045000       0.000134
                                                         0.113512       0.005569
                                                         0.322032       0.022768
                                                         0.930550       0.153995
                                                         2.987378       0.000000
                          1      15    5gy2z2            0.045000       0.000173
                                                         0.113512       0.007189
                                                         0.322032       0.029393
                                                         0.930550       0.198807
                                                         2.987378       0.000000
                          1      15    5gyz3             0.045000       0.000134
                                                         0.113512       0.005569
                                                         0.322032       0.022768
                                                         0.930550       0.153995
                                                         2.987378       0.000000
                          1      15    5gz4              0.045000       0.000051
                                                         0.113512       0.002105
                                                         0.322032       0.008605
                                                         0.930550       0.058205
                                                         2.987378       0.000000

                          2       1    1s         

     AE Potential information for                                            ALL

       Description:                                       All-electron potential
                                          Krack, Parrinello, PCCP 2, 2105 (2000)

       Gaussian exponent of the core charge distribution:               5.979100
       Electronic configuration (s p d ...):                           4   3   0

  2. Atomic kind: C                                     Number of atoms:       3

     Orbital Basis Set                                        aug-TZVP-MOLOPT-ae

       Number of orbital shell sets:                                           2
       Number of orbital shells:                                              16
       Number of primitive Cartesian functions:                               13
       Number of Cartesian basis functions:                                   71
       Number of spherical basis functions:                                   56
       Norm type:                                                              2

       Normalised Cartesian orbitals:

                        Set   Shell   Orbital            Exponent    Coefficient

                          1       1    1s                0.040000       0.000000
                                                         0.097098       0.019281
                                                         0.283960       0.027513
                                                         0.806764       0.003692
                                                         2.441624       0.446183
                                                         6.739673       1.752510
                                                        34.417212       0.637474

                          1       2    2s                0.040000       0.000000
                                                         0.097098       0.029117
                                                         0.283960       0.094997
                                                         0.806764       0.362633
                                                         2.441624      -0.104551
                                                         6.739673      -0.288836
                                                        34.417212       1.102934

                          1       3    3s                0.040000       0.000000
                                                         0.097098       0.047046
                                                         0.283960       0.169545
                                                         0.806764      -0.252838
                                                         2.441624      -0.199197
                                                         6.739673      -0.168746
                                                        34.417212      -6.120053

                          1       4    4s                0.040000       0.000000
                                                         0.097098       0.188374
                                                         0.283960      -0.341415
                                                         0.806764       0.091223
                                                         2.441624      -0.053941
                                                         6.739673      -0.401007
                                                        34.417212      -3.786931

                          1       5    5s                0.040000       0.099533
                                                         0.097098      -0.167672
                                                         0.283960      -0.126383
                                                         0.806764       0.030074
                                                         2.441624       0.000000
                                                         6.739673       0.000000
                                                        34.417212       0.000000

                          1       6    2px               0.040000       0.000000
                                                         0.097098       0.005087
                                                         0.283960       0.032186
                                                         0.806764       0.779023
                                                         2.441624       0.695625
                                                         6.739673       2.243109
                                                        34.417212       2.016536
                          1       6    2py               0.040000       0.000000
                                                         0.097098       0.005087
                                                         0.283960       0.032186
                                                         0.806764       0.779023
                                                         2.441624       0.695625
                                                         6.739673       2.243109
                                                        34.417212       2.016536
                          1       6    2pz               0.040000       0.000000
                                                         0.097098       0.005087
                                                         0.283960       0.032186
                                                         0.806764       0.779023
                                                         2.441624       0.695625
                                                         6.739673       2.243109
                                                        34.417212       2.016536

                          1       7    3px               0.040000       0.000000
                                                         0.097098       0.008084
                                                         0.283960       0.294367
                                                         0.806764      -0.188640
                                                         2.441624       0.912249
                                                         6.739673      -2.720242
                                                        34.417212       1.690366
                          1       7    3py               0.040000       0.000000
                                                         0.097098       0.008084
                                                         0.283960       0.294367
                                                         0.806764      -0.188640
                                                         2.441624       0.912249
                                                         6.739673      -2.720242
                                                        34.417212       1.690366
                          1       7    3pz               0.040000       0.000000
                                                         0.097098       0.008084
                                                         0.283960       0.294367
                                                         0.806764      -0.188640
                                                         2.441624       0.912249
                                                         6.739673      -2.720242
                                                        34.417212       1.690366

                          1       8    4px               0.040000       0.000000
                                                         0.097098       0.081068
                                                         0.283960      -0.017243
                                                         0.806764      -0.070055
                                                         2.441624      -0.855991
                                                         6.739673       1.761645
                                                        34.417212     -12.705833
                          1       8    4py               0.040000       0.000000
                                                         0.097098       0.081068
                                                         0.283960      -0.017243
                                                         0.806764      -0.070055
                                                         2.441624      -0.855991
                                                         6.739673       1.761645
                                                        34.417212     -12.705833
                          1       8    4pz               0.040000       0.000000
                                                         0.097098       0.081068
                                                         0.283960      -0.017243
                                                         0.806764      -0.070055
                                                         2.441624      -0.855991
                                                         6.739673       1.761645
                                                        34.417212     -12.705833

                          1       9    5px               0.040000       0.032085
                                                         0.097098      -0.027366
                                                         0.283960      -0.100343
                                                         0.806764      -0.020266
                                                         2.441624       0.000000
                                                         6.739673       0.000000
                                                        34.417212       0.000000
                          1       9    5py               0.040000       0.032085
                                                         0.097098      -0.027366
                                                         0.283960      -0.100343
                                                         0.806764      -0.020266
                                                         2.441624       0.000000
                                                         6.739673       0.000000
                                                        34.417212       0.000000
                          1       9    5pz               0.040000       0.032085
                                                         0.097098      -0.027366
                                                         0.283960      -0.100343
                                                         0.806764      -0.020266
                                                         2.441624       0.000000
                                                         6.739673       0.000000
                                                        34.417212       0.000000

                          1      10    3dx2              0.040000       0.000000
                                                         0.097098       0.001415
                                                         0.283960       0.015501
                                                         0.806764       0.546922
                                                         2.441624       3.763414
                                                         6.739673       4.248634
                                                        34.417212     174.894573
                          1      10    3dxy              0.040000       0.000000
                                                         0.097098       0.002451
                                                         0.283960       0.026849
                                                         0.806764       0.947296
                                                         2.441624       6.518424
                                                         6.739673       7.358850
                                                        34.417212     302.926287
                          1      10    3dxz              0.040000       0.000000
                                                         0.097098       0.002451
                                                         0.283960       0.026849
                                                         0.806764       0.947296
                                                         2.441624       6.518424
                                                         6.739673       7.358850
                                                        34.417212     302.926287
                          1      10    3dy2              0.040000       0.000000
                                                         0.097098       0.001415
                                                         0.283960       0.015501
                                                         0.806764       0.546922
                                                         2.441624       3.763414
                                                         6.739673       4.248634
                                                        34.417212     174.894573
                          1      10    3dyz              0.040000       0.000000
                                                         0.097098       0.002451
                                                         0.283960       0.026849
                                                         0.806764       0.947296
                                                         2.441624       6.518424
                                                         6.739673       7.358850
                                                        34.417212     302.926287
                          1      10    3dz2              0.040000       0.000000
                                                         0.097098       0.001415
                                                         0.283960       0.015501
                                                         0.806764       0.546922
                                                         2.441624       3.763414
                                                         6.739673       4.248634
                                                        34.417212     174.894573

                          1      11    4dx2              0.040000       0.000000
                                                         0.097098       0.001225
                                                         0.283960       0.139703
                                                         0.806764       0.323683
                                                         2.441624      -2.510108
                                                         6.739673      -4.401044
                                                        34.417212    -164.169372
                          1      11    4dxy              0.040000       0.000000
                                                         0.097098       0.002122
                                                         0.283960       0.241972
                                                         0.806764       0.560636
                                                         2.441624      -4.347634
                                                         6.739673      -7.622831
                                                        34.417212    -284.349694
                          1      11    4dxz              0.040000       0.000000
                                                         0.097098       0.002122
                                                         0.283960       0.241972
                                                         0.806764       0.560636
                                                         2.441624      -4.347634
                                                         6.739673      -7.622831
                                                        34.417212    -284.349694
                          1      11    4dy2              0.040000       0.000000
                                                         0.097098       0.001225
                                                         0.283960       0.139703
                                                         0.806764       0.323683
                                                         2.441624      -2.510108
                                                         6.739673      -4.401044
                                                        34.417212    -164.169372
                          1      11    4dyz              0.040000       0.000000
                                                         0.097098       0.002122
                                                         0.283960       0.241972
                                                         0.806764       0.560636
                                                         2.441624      -4.347634
                                                         6.739673      -7.622831
                                                        34.417212    -284.349694
                          1      11    4dz2              0.040000       0.000000
                                                         0.097098       0.001225
                                                         0.283960       0.139703
                                                         0.806764       0.323683
                                                         2.441624      -2.510108
                                                         6.739673      -4.401044
                                                        34.417212    -164.169372

                          1      12    5dx2              0.040000       0.006049
                                                         0.097098      -0.003128
                                                         0.283960       0.033814
                                                         0.806764       0.003338
                                                         2.441624       0.000000
                                                         6.739673       0.000000
                                                        34.417212       0.000000
                          1      12    5dxy              0.040000       0.010477
                                                         0.097098      -0.005418
                                                         0.283960       0.058567
                                                         0.806764       0.005781
                                                         2.441624       0.000000
                                                         6.739673       0.000000
                                                        34.417212       0.000000
                          1      12    5dxz              0.040000       0.010477
                                                         0.097098      -0.005418
                                                         0.283960       0.058567
                                                         0.806764       0.005781
                                                         2.441624       0.000000
                                                         6.739673       0.000000
                                                        34.417212       0.000000
                          1      12    5dy2              0.040000       0.006049
                                                         0.097098      -0.003128
                                                         0.283960       0.033814
                                                         0.806764       0.003338
                                                         2.441624       0.000000
                                                         6.739673       0.000000
                                                        34.417212       0.000000
                          1      12    5dyz              0.040000       0.010477
                                                         0.097098      -0.005418
                                                         0.283960       0.058567
                                                         0.806764       0.005781
                                                         2.441624       0.000000
                                                         6.739673       0.000000
                                                        34.417212       0.000000
                          1      12    5dz2              0.040000       0.006049
                                                         0.097098      -0.003128
                                                         0.283960       0.033814
                                                         0.806764       0.003338
                                                         2.441624       0.000000
                                                         6.739673       0.000000
                                                        34.417212       0.000000

                          1      13    4fx3              0.040000       0.000000
                                                         0.097098      -0.000799
                                                         0.283960       0.042127
                                                         0.806764       0.576468
                                                         2.441624       1.033755
                                                         6.739673      -2.026957
                                                        34.417212      49.427593
                          1      13    4fx2y             0.040000       0.000000
                                                         0.097098      -0.001786
                                                         0.283960       0.094199
                                                         0.806764       1.289022
                                                         2.441624       2.311546
                                                         6.739673      -4.532415
                                                        34.417212     110.523457
                          1      13    4fx2z             0.040000       0.000000
                                                         0.097098      -0.001786
                                                         0.283960       0.094199
                                                         0.806764       1.289022
                                                         2.441624       2.311546
                                                         6.739673      -4.532415
                                                        34.417212     110.523457
                          1      13    4fxy2             0.040000       0.000000
                                                         0.097098      -0.001786
                                                         0.283960       0.094199
                                                         0.806764       1.289022
                                                         2.441624       2.311546
                                                         6.739673      -4.532415
                                                        34.417212     110.523457
                          1      13    4fxyz             0.040000       0.000000
                                                         0.097098      -0.003093
                                                         0.283960       0.163158
                                                         0.806764       2.232651
                                                         2.441624       4.003716
                                                         6.739673      -7.850372
                                                        34.417212     191.432243
                          1      13    4fxz2             0.040000       0.000000
                                                         0.097098      -0.001786
                                                         0.283960       0.094199
                                                         0.806764       1.289022
                                                         2.441624       2.311546
                                                         6.739673      -4.532415
                                                        34.417212     110.523457
                          1      13    4fy3              0.040000       0.000000
                                                         0.097098      -0.000799
                                                         0.283960       0.042127
                                                         0.806764       0.576468
                                                         2.441624       1.033755
                                                         6.739673      -2.026957
                                                        34.417212      49.427593
                          1      13    4fy2z             0.040000       0.000000
                                                         0.097098      -0.001786
                                                         0.283960       0.094199
                                                         0.806764       1.289022
                                                         2.441624       2.311546
                                                         6.739673      -4.532415
                                                        34.417212     110.523457
                          1      13    4fyz2             0.040000       0.000000
                                                         0.097098      -0.001786
                                                         0.283960       0.094199
                                                         0.806764       1.289022
                                                         2.441624       2.311546
                                                         6.739673      -4.532415
                                                        34.417212     110.523457
                          1      13    4fz3              0.040000       0.000000
                                                         0.097098      -0.000799
                                                         0.283960       0.042127
                                                         0.806764       0.576468
                                                         2.441624       1.033755
                                                         6.739673      -2.026957
                                                        34.417212      49.427593

                          1      14    5fx3              0.040000       0.000092
                                                         0.097098       0.001511
                                                         0.283960      -0.094589
                                                         0.806764       0.000869
                                                         2.441624       0.000000
                                                         6.739673       0.000000
                                                        34.417212       0.000000
                          1      14    5fx2y             0.040000       0.000206
                                                         0.097098       0.003380
                                                         0.283960      -0.211507
                                                         0.806764       0.001943
                                                         2.441624       0.000000
                                                         6.739673       0.000000
                                                        34.417212       0.000000
                          1      14    5fx2z             0.040000       0.000206
                                                         0.097098       0.003380
                                                         0.283960      -0.211507
                                                         0.806764       0.001943
                                                         2.441624       0.000000
                                                         6.739673       0.000000
                                                        34.417212       0.000000
                          1      14    5fxy2             0.040000       0.000206
                                                         0.097098       0.003380
                                                         0.283960      -0.211507
                                                         0.806764       0.001943
                                                         2.441624       0.000000
                                                         6.739673       0.000000
                                                        34.417212       0.000000
                          1      14    5fxyz             0.040000       0.000357
                                                         0.097098       0.005854
                                                         0.283960      -0.366341
                                                         0.806764       0.003365
                                                         2.441624       0.000000
                                                         6.739673       0.000000
                                                        34.417212       0.000000
                          1      14    5fxz2             0.040000       0.000206
                                                         0.097098       0.003380
                                                         0.283960      -0.211507
                                                         0.806764       0.001943
                                                         2.441624       0.000000
                                                         6.739673       0.000000
                                                        34.417212       0.000000
                          1      14    5fy3              0.040000       0.000092
                                                         0.097098       0.001511
                                                         0.283960      -0.094589
                                                         0.806764       0.000869
                                                         2.441624       0.000000
                                                         6.739673       0.000000
                                                        34.417212       0.000000
                          1      14    5fy2z             0.040000       0.000206
                                                         0.097098       0.003380
                                                         0.283960      -0.211507
                                                         0.806764       0.001943
                                                         2.441624       0.000000
                                                         6.739673       0.000000
                                                        34.417212       0.000000
                          1      14    5fyz2             0.040000       0.000206
                                                         0.097098       0.003380
                                                         0.283960      -0.211507
                                                         0.806764       0.001943
                                                         2.441624       0.000000
                                                         6.739673       0.000000
                                                        34.417212       0.000000
                          1      14    5fz3              0.040000       0.000092
                                                         0.097098       0.001511
                                                         0.283960      -0.094589
                                                         0.806764       0.000869
                                                         2.441624       0.000000
                                                         6.739673       0.000000
                                                        34.417212       0.000000

                          1      15    5gx4              0.040000       0.000014
                                                         0.097098       0.001608
                                                         0.283960       0.004604
                                                         0.806764      -0.003474
                                                         2.441624       0.000000
                                                         6.739673       0.000000
                                                        34.417212       0.000000
                          1      15    5gx3y             0.040000       0.000036
                                                         0.097098       0.004255
                                                         0.283960       0.012180
                                                         0.806764      -0.009191
                                                         2.441624       0.000000
                                                         6.739673       0.000000
                                                        34.417212       0.000000
                          1      15    5gx3z             0.040000       0.000036
                                                         0.097098       0.004255
                                                         0.283960       0.012180
                                                         0.806764      -0.009191
                                                         2.441624       0.000000
                                                         6.739673       0.000000
                                                        34.417212       0.000000
                          1      15    5gx2y2            0.040000       0.000046
                                                         0.097098       0.005493
                                                         0.283960       0.015725
                                                         0.806764      -0.011865
                                                         2.441624       0.000000
                                                         6.739673       0.000000
                                                        34.417212       0.000000
                          1      15    5gx2yz            0.040000       0.000080
                                                         0.097098       0.009514
                                                         0.283960       0.027236
                                                         0.806764      -0.020551
                                                         2.441624       0.000000
                                                         6.739673       0.000000
                                                        34.417212       0.000000
                          1      15    5gx2z2            0.040000       0.000046
                                                         0.097098       0.005493
                                                         0.283960       0.015725
                                                         0.806764      -0.011865
                                                         2.441624       0.000000
                                                         6.739673       0.000000
                                                        34.417212       0.000000
                          1      15    5gxy3             0.040000       0.000036
                                                         0.097098       0.004255
                                                         0.283960       0.012180
                                                         0.806764      -0.009191
                                                         2.441624       0.000000
                                                         6.739673       0.000000
                                                        34.417212       0.000000
                          1      15    5gxy2z            0.040000       0.000080
                                                         0.097098       0.009514
                                                         0.283960       0.027236
                                                         0.806764      -0.020551
                                                         2.441624       0.000000
                                                         6.739673       0.000000
                                                        34.417212       0.000000
                          1      15    5gxyz2            0.040000       0.000080
                                                         0.097098       0.009514
                                                         0.283960       0.027236
                                                         0.806764      -0.020551
                                                         2.441624       0.000000
                                                         6.739673       0.000000
                                                        34.417212       0.000000
                          1      15    5gxz3             0.040000       0.000036
                                                         0.097098       0.004255
                                                         0.283960       0.012180
                                                         0.806764      -0.009191
                                                         2.441624       0.000000
                                                         6.739673       0.000000
                                                        34.417212       0.000000
                          1      15    5gy4              0.040000       0.000014
                                                         0.097098       0.001608
                                                         0.283960       0.004604
                                                         0.806764      -0.003474
                                                         2.441624       0.000000
                                                         6.739673       0.000000
                                                        34.417212       0.000000
                          1      15    5gy3z             0.040000       0.000036
                                                         0.097098       0.004255
                                                         0.283960       0.012180
                                                         0.806764      -0.009191
                                                         2.441624       0.000000
                                                         6.739673       0.000000
                                                        34.417212       0.000000
                          1      15    5gy2z2            0.040000       0.000046
                                                         0.097098       0.005493
                                                         0.283960       0.015725
                                                         0.806764      -0.011865
                                                         2.441624       0.000000
                                                         6.739673       0.000000
                                                        34.417212       0.000000
                          1      15    5gyz3             0.040000       0.000036
                                                         0.097098       0.004255
                                                         0.283960       0.012180
                                                         0.806764      -0.009191
                                                         2.441624       0.000000
                                                         6.739673       0.000000
                                                        34.417212       0.000000
                          1      15    5gz4              0.040000       0.000014
                                                         0.097098       0.001608
                                                         0.283960       0.004604
                                                         0.806764      -0.003474
                                                         2.441624       0.000000
                                                         6.739673       0.000000
                                                        34.417212       0.000000

                          2       1    1s            13575.369584       0.323227
                                                      2035.237517       2.062509
                                                       463.111112       2.210797
                                                       131.318553       4.954487
                                                        42.899593       1.730189
                                                        15.855102       4.257999

     RI Auxiliary Basis Set             RI_aug-TZVP-MOLOPT-ae_N_RI_073_s_p_d_f_g

       Number of orbital shell sets:                                          19
       Number of orbital shells:                                              19
       Number of primitive Cartesian functions:                               19
       Number of Cartesian basis functions:                                   97
       Number of spherical basis functions:                                   73
       Norm type:                                                              2

       Normalised Cartesian orbitals:

                        Set   Shell   Orbital            Exponent    Coefficient

                          1       1    1s                0.091816       0.118877

                          2       1    2s                0.287175       0.279589

                          3       1    8px               0.391455       0.441359
                          3       1    8py               0.391455       0.441359
                          3       1    8pz               0.391455       0.441359

                          4       1   12dx2              0.453199       0.412017
                          4       1   12dxy              0.453199       0.713635
                          4       1   12dxz              0.453199       0.713635
                          4       1   12dy2              0.453199       0.412017
                          4       1   12dyz              0.453199       0.713635
                          4       1   12dz2              0.453199       0.412017

                          5       1   15fx3              0.493596       0.300635
                          5       1   15fx2y             0.493596       0.672241
                          5       1   15fx2z             0.493596       0.672241
                          5       1   15fxy2             0.493596       0.672241
                          5       1   15fxyz             0.493596       1.164356
                          5       1   15fxz2             0.493596       0.672241
                          5       1   15fy3              0.493596       0.300635
                          5       1   15fy2z             0.493596       0.672241
                          5       1   15fyz2             0.493596       0.672241
                          5       1   15fz3              0.493596       0.300635

                          6       1   18gx4              0.552678       0.217888
                          6       1   18gx3y             0.552678       0.576478
                          6       1   18gx3z             0.552678       0.576478
                          6       1   18gx2y2            0.552678       0.744230
                          6       1   18gx2yz            0.552678       1.289044
                          6       1   18gx2z2            0.552678       0.744230
                          6       1   18gxy3             0.552678       0.576478
                          6       1   18gxy2z            0.552678       1.289044
                          6       1   18gxyz2            0.552678       1.289044
                          6       1   18gxz3             0.552678       0.576478
                          6       1   18gy4              0.552678       0.217888
                          6       1   18gy3z             0.552678       0.576478
                          6       1   18gy2z2            0.552678       0.744230
                          6       1   18gyz3             0.552678       0.576478
                          6       1   18gz4              0.552678       0.217888

                          7       1    9px               0.792647       1.066080
                          7       1    9py               0.792647       1.066080
                          7       1    9pz               0.792647       1.066080

                          8       1    3s                0.811053       0.609112

                          9       1   13dx2              1.050831       1.795115
                          9       1   13dxy              1.050831       3.109231
                          9       1   13dxz              1.050831       3.109231
                          9       1   13dy2              1.050831       1.795115
                          9       1   13dyz              1.050831       3.109231
                          9       1   13dz2              1.050831       1.795115

                         10       1   16fx3              1.094417       1.803497
                         10       1   16fx2y             1.094417       4.032742
                         10       1   16fx2z             1.094417       4.032742
                         10       1   16fxy2             1.094417       4.032742
                         10       1   16fxyz             1.094417       6.984914
                         10       1   16fxz2             1.094417       4.032742
                         10       1   16fy3              1.094417       1.803497
                         10       1   16fy2z             1.094417       4.032742
                         10       1   16fyz2             1.094417       4.032742
                         10       1   16fz3              1.094417       1.803497

                         11       1   19gx4              1.617251       4.174201
                         11       1   19gx3y             1.617251      11.043898
                         11       1   19gx3z             1.617251      11.043898
                         11       1   19gx2y2            1.617251      14.257611
                         11       1   19gx2yz            1.617251      24.694907
                         11       1   19gx2z2            1.617251      14.257611
                         11       1   19gxy3             1.617251      11.043898
                         11       1   19gxy2z            1.617251      24.694907
                         11       1   19gxyz2            1.617251      24.694907
                         11       1   19gxz3             1.617251      11.043898
                         11       1   19gy4              1.617251       4.174201
                         11       1   19gy3z             1.617251      11.043898
                         11       1   19gy2z2            1.617251      14.257611
                         11       1   19gyz3             1.617251      11.043898
                         11       1   19gz4              1.617251       4.174201

                         12       1   17fx3              2.247970       9.109259
                         12       1   17fx2y             2.247970      20.368923
                         12       1   17fx2z             2.247970      20.368923
                         12       1   17fxy2             2.247970      20.368923
                         12       1   17fxyz             2.247970      35.280010
                         12       1   17fxz2             2.247970      20.368923
                         12       1   17fy3              2.247970       9.109259
                         12       1   17fy2z             2.247970      20.368923
                         12       1   17fyz2             2.247970      20.368923
                         12       1   17fz3              2.247970       9.109259

                         13       1    4s                2.631051       1.472336

                         14       1   10px               2.735736       5.015136
                         14       1   10py               2.735736       5.015136
                         14       1   10pz               2.735736       5.015136

                         15       1   14dx2              3.531424      14.973444
                         15       1   14dxy              3.531424      25.934767
                         15       1   14dxz              3.531424      25.934767
                         15       1   14dy2              3.531424      14.973444
                         15       1   14dyz              3.531424      25.934767
                         15       1   14dz2              3.531424      14.973444

                         16       1    5s                8.634213       3.589857

                         17       1   11px              14.132879      39.059653
                         17       1   11py              14.132879      39.059653
                         17       1   11pz              14.132879      39.059653

                         18       1    6s               27.135268       8.473458

                         19       1    7s               81.848125      19.393967

       Atomic covalent radius [Angstrom]:                                  0.770

       Atomic van der Waals radius [Angstrom]:                             1.700

     The atoms of this atomic kind are PAW atoms (GAPW):
       Hard Gaussian function radius:                                      1.512
       Rho0 radius:                                                        1.512
       Maximum GTO radius used for PAW projector construction:            24.566

     GAPW Soft Basis Set                                 aug-TZVP-MOLOPT-ae_soft

       Number of orbital shell sets:                                           2
       Number of orbital shells:                                              16
       Number of primitive Cartesian functions:                                5
       Number of Cartesian basis functions:                                   71
       Number of spherical basis functions:                                   56
       Norm type:                                                              2

       Normalised Cartesian orbitals:

                        Set   Shell   Orbital            Exponent    Coefficient

                          1       1    1s                0.040000       0.000000
                                                         0.097098       0.019281
                                                         0.283960       0.027513
                                                         0.806764       0.003692
                                                         2.441624       0.446183

                          1       2    2s                0.040000       0.000000
                                                         0.097098       0.029117
                                                         0.283960       0.094997
                                                         0.806764       0.362633
                                                         2.441624      -0.104551

                          1       3    3s                0.040000       0.000000
                                                         0.097098       0.047046
                                                         0.283960       0.169545
                                                         0.806764      -0.252838
                                                         2.441624      -0.199197

                          1       4    4s                0.040000       0.000000
                                                         0.097098       0.188374
                                                         0.283960      -0.341415
                                                         0.806764       0.091223
                                                         2.441624      -0.053941

                          1       5    5s                0.040000       0.099533
                                                         0.097098      -0.167672
                                                         0.283960      -0.126383
                                                         0.806764       0.030074
                                                         2.441624       0.000000

                          1       6    2px               0.040000       0.000000
                                                         0.097098       0.005087
                                                         0.283960       0.032186
                                                         0.806764       0.779023
                                                         2.441624       0.695625
                          1       6    2py               0.040000       0.000000
                                                         0.097098       0.005087
                                                         0.283960       0.032186
                                                         0.806764       0.779023
                                                         2.441624       0.695625
                          1       6    2pz               0.040000       0.000000
                                                         0.097098       0.005087
                                                         0.283960       0.032186
                                                         0.806764       0.779023
                                                         2.441624       0.695625

                          1       7    3px               0.040000       0.000000
                                                         0.097098       0.008084
                                                         0.283960       0.294367
                                                         0.806764      -0.188640
                                                         2.441624       0.912249
                          1       7    3py               0.040000       0.000000
                                                         0.097098       0.008084
                                                         0.283960       0.294367
                                                         0.806764      -0.188640
                                                         2.441624       0.912249
                          1       7    3pz               0.040000       0.000000
                                                         0.097098       0.008084
                                                         0.283960       0.294367
                                                         0.806764      -0.188640
                                                         2.441624       0.912249

                          1       8    4px               0.040000       0.000000
                                                         0.097098       0.081068
                                                         0.283960      -0.017243
                                                         0.806764      -0.070055
                                                         2.441624      -0.855991
                          1       8    4py               0.040000       0.000000
                                                         0.097098       0.081068
                                                         0.283960      -0.017243
                                                         0.806764      -0.070055
                                                         2.441624      -0.855991
                          1       8    4pz               0.040000       0.000000
                                                         0.097098       0.081068
                                                         0.283960      -0.017243
                                                         0.806764      -0.070055
                                                         2.441624      -0.855991

                          1       9    5px               0.040000       0.032085
                                                         0.097098      -0.027366
                                                         0.283960      -0.100343
                                                         0.806764      -0.020266
                                                         2.441624       0.000000
                          1       9    5py               0.040000       0.032085
                                                         0.097098      -0.027366
                                                         0.283960      -0.100343
                                                         0.806764      -0.020266
                                                         2.441624       0.000000
                          1       9    5pz               0.040000       0.032085
                                                         0.097098      -0.027366
                                                         0.283960      -0.100343
                                                         0.806764      -0.020266
                                                         2.441624       0.000000

                          1      10    3dx2              0.040000       0.000000
                                                         0.097098       0.001415
                                                         0.283960       0.015501
                                                         0.806764       0.546922
                                                         2.441624       3.763414
                          1      10    3dxy              0.040000       0.000000
                                                         0.097098       0.002451
                                                         0.283960       0.026849
                                                         0.806764       0.947296
                                                         2.441624       6.518424
                          1      10    3dxz              0.040000       0.000000
                                                         0.097098       0.002451
                                                         0.283960       0.026849
                                                         0.806764       0.947296
                                                         2.441624       6.518424
                          1      10    3dy2              0.040000       0.000000
                                                         0.097098       0.001415
                                                         0.283960       0.015501
                                                         0.806764       0.546922
                                                         2.441624       3.763414
                          1      10    3dyz              0.040000       0.000000
                                                         0.097098       0.002451
                                                         0.283960       0.026849
                                                         0.806764       0.947296
                                                         2.441624       6.518424
                          1      10    3dz2              0.040000       0.000000
                                                         0.097098       0.001415
                                                         0.283960       0.015501
                                                         0.806764       0.546922
                                                         2.441624       3.763414

                          1      11    4dx2              0.040000       0.000000
                                                         0.097098       0.001225
                                                         0.283960       0.139703
                                                         0.806764       0.323683
                                                         2.441624      -2.510108
                          1      11    4dxy              0.040000       0.000000
                                                         0.097098       0.002122
                                                         0.283960       0.241972
                                                         0.806764       0.560636
                                                         2.441624      -4.347634
                          1      11    4dxz              0.040000       0.000000
                                                         0.097098       0.002122
                                                         0.283960       0.241972
                                                         0.806764       0.560636
                                                         2.441624      -4.347634
                          1      11    4dy2              0.040000       0.000000
                                                         0.097098       0.001225
                                                         0.283960       0.139703
                                                         0.806764       0.323683
                                                         2.441624      -2.510108
                          1      11    4dyz              0.040000       0.000000
                                                         0.097098       0.002122
                                                         0.283960       0.241972
                                                         0.806764       0.560636
                                                         2.441624      -4.347634
                          1      11    4dz2              0.040000       0.000000
                                                         0.097098       0.001225
                                                         0.283960       0.139703
                                                         0.806764       0.323683
                                                         2.441624      -2.510108

                          1      12    5dx2              0.040000       0.006049
                                                         0.097098      -0.003128
                                                         0.283960       0.033814
                                                         0.806764       0.003338
                                                         2.441624       0.000000
                          1      12    5dxy              0.040000       0.010477
                                                         0.097098      -0.005418
                                                         0.283960       0.058567
                                                         0.806764       0.005781
                                                         2.441624       0.000000
                          1      12    5dxz              0.040000       0.010477
                                                         0.097098      -0.005418
                                                         0.283960       0.058567
                                                         0.806764       0.005781
                                                         2.441624       0.000000
                          1      12    5dy2              0.040000       0.006049
                                                         0.097098      -0.003128
                                                         0.283960       0.033814
                                                         0.806764       0.003338
                                                         2.441624       0.000000
                          1      12    5dyz              0.040000       0.010477
                                                         0.097098      -0.005418
                                                         0.283960       0.058567
                                                         0.806764       0.005781
                                                         2.441624       0.000000
                          1      12    5dz2              0.040000       0.006049
                                                         0.097098      -0.003128
                                                         0.283960       0.033814
                                                         0.806764       0.003338
                                                         2.441624       0.000000

                          1      13    4fx3              0.040000       0.000000
                                                         0.097098      -0.000799
                                                         0.283960       0.042127
                                                         0.806764       0.576468
                                                         2.441624       1.033755
                          1      13    4fx2y             0.040000       0.000000
                                                         0.097098      -0.001786
                                                         0.283960       0.094199
                                                         0.806764       1.289022
                                                         2.441624       2.311546
                          1      13    4fx2z             0.040000       0.000000
                                                         0.097098      -0.001786
                                                         0.283960       0.094199
                                                         0.806764       1.289022
                                                         2.441624       2.311546
                          1      13    4fxy2             0.040000       0.000000
                                                         0.097098      -0.001786
                                                         0.283960       0.094199
                                                         0.806764       1.289022
                                                         2.441624       2.311546
                          1      13    4fxyz             0.040000       0.000000
                                                         0.097098      -0.003093
                                                         0.283960       0.163158
                                                         0.806764       2.232651
                                                         2.441624       4.003716
                          1      13    4fxz2             0.040000       0.000000
                                                         0.097098      -0.001786
                                                         0.283960       0.094199
                                                         0.806764       1.289022
                                                         2.441624       2.311546
                          1      13    4fy3              0.040000       0.000000
                                                         0.097098      -0.000799
                                                         0.283960       0.042127
                                                         0.806764       0.576468
                                                         2.441624       1.033755
                          1      13    4fy2z             0.040000       0.000000
                                                         0.097098      -0.001786
                                                         0.283960       0.094199
                                                         0.806764       1.289022
                                                         2.441624       2.311546
                          1      13    4fyz2             0.040000       0.000000
                                                         0.097098      -0.001786
                                                         0.283960       0.094199
                                                         0.806764       1.289022
                                                         2.441624       2.311546
                          1      13    4fz3              0.040000       0.000000
                                                         0.097098      -0.000799
                                                         0.283960       0.042127
                                                         0.806764       0.576468
                                                         2.441624       1.033755

                          1      14    5fx3              0.040000       0.000092
                                                         0.097098       0.001511
                                                         0.283960      -0.094589
                                                         0.806764       0.000869
                                                         2.441624       0.000000
                          1      14    5fx2y             0.040000       0.000206
                                                         0.097098       0.003380
                                                         0.283960      -0.211507
                                                         0.806764       0.001943
                                                         2.441624       0.000000
                          1      14    5fx2z             0.040000       0.000206
                                                         0.097098       0.003380
                                                         0.283960      -0.211507
                                                         0.806764       0.001943
                                                         2.441624       0.000000
                          1      14    5fxy2             0.040000       0.000206
                                                         0.097098       0.003380
                                                         0.283960      -0.211507
                                                         0.806764       0.001943
                                                         2.441624       0.000000
                          1      14    5fxyz             0.040000       0.000357
                                                         0.097098       0.005854
                                                         0.283960      -0.366341
                                                         0.806764       0.003365
                                                         2.441624       0.000000
                          1      14    5fxz2             0.040000       0.000206
                                                         0.097098       0.003380
                                                         0.283960      -0.211507
                                                         0.806764       0.001943
                                                         2.441624       0.000000
                          1      14    5fy3              0.040000       0.000092
                                                         0.097098       0.001511
                                                         0.283960      -0.094589
                                                         0.806764       0.000869
                                                         2.441624       0.000000
                          1      14    5fy2z             0.040000       0.000206
                                                         0.097098       0.003380
                                                         0.283960      -0.211507
                                                         0.806764       0.001943
                                                         2.441624       0.000000
                          1      14    5fyz2             0.040000       0.000206
                                                         0.097098       0.003380
                                                         0.283960      -0.211507
                                                         0.806764       0.001943
                                                         2.441624       0.000000
                          1      14    5fz3              0.040000       0.000092
                                                         0.097098       0.001511
                                                         0.283960      -0.094589
                                                         0.806764       0.000869
                                                         2.441624       0.000000

                          1      15    5gx4              0.040000       0.000014
                                                         0.097098       0.001608
                                                         0.283960       0.004604
                                                         0.806764      -0.003474
                                                         2.441624       0.000000
                          1      15    5gx3y             0.040000       0.000036
                                                         0.097098       0.004255
                                                         0.283960       0.012180
                                                         0.806764      -0.009191
                                                         2.441624       0.000000
                          1      15    5gx3z             0.040000       0.000036
                                                         0.097098       0.004255
                                                         0.283960       0.012180
                                                         0.806764      -0.009191
                                                         2.441624       0.000000
                          1      15    5gx2y2            0.040000       0.000046
                                                         0.097098       0.005493
                                                         0.283960       0.015725
                                                         0.806764      -0.011865
                                                         2.441624       0.000000
                          1      15    5gx2yz            0.040000       0.000080
                                                         0.097098       0.009514
                                                         0.283960       0.027236
                                                         0.806764      -0.020551
                                                         2.441624       0.000000
                          1      15    5gx2z2            0.040000       0.000046
                                                         0.097098       0.005493
                                                         0.283960       0.015725
                                                         0.806764      -0.011865
                                                         2.441624       0.000000
                          1      15    5gxy3             0.040000       0.000036
                                                         0.097098       0.004255
                                                         0.283960       0.012180
                                                         0.806764      -0.009191
                                                         2.441624       0.000000
                          1      15    5gxy2z            0.040000       0.000080
                                                         0.097098       0.009514
                                                         0.283960       0.027236
                                                         0.806764      -0.020551
                                                         2.441624       0.000000
                          1      15    5gxyz2            0.040000       0.000080
                                                         0.097098       0.009514
                                                         0.283960       0.027236
                                                         0.806764      -0.020551
                                                         2.441624       0.000000
                          1      15    5gxz3             0.040000       0.000036
                                                         0.097098       0.004255
                                                         0.283960       0.012180
                                                         0.806764      -0.009191
                                                         2.441624       0.000000
                          1      15    5gy4              0.040000       0.000014
                                                         0.097098       0.001608
                                                         0.283960       0.004604
                                                         0.806764      -0.003474
                                                         2.441624       0.000000
                          1      15    5gy3z             0.040000       0.000036
                                                         0.097098       0.004255
                                                         0.283960       0.012180
                                                         0.806764      -0.009191
                                                         2.441624       0.000000
                          1      15    5gy2z2            0.040000       0.000046
                                                         0.097098       0.005493
                                                         0.283960       0.015725
                                                         0.806764      -0.011865
                                                         2.441624       0.000000
                          1      15    5gyz3             0.040000       0.000036
                                                         0.097098       0.004255
                                                         0.283960       0.012180
                                                         0.806764      -0.009191
                                                         2.441624       0.000000
                          1      15    5gz4              0.040000       0.000014
                                                         0.097098       0.001608
                                                         0.283960       0.004604
                                                         0.806764      -0.003474
                                                         2.441624       0.000000

                          2       1    1s         

     AE Potential information for                                            ALL

       Description:                                       All-electron potential
                                          Krack, Parrinello, PCCP 2, 2105 (2000)

       Gaussian exponent of the core charge distribution:               4.109048
       Electronic configuration (s p d ...):                           4   2   0

  3. Atomic kind: O                                     Number of atoms:       2

     Orbital Basis Set                                        aug-TZVP-MOLOPT-ae

       Number of orbital shell sets:                                           2
       Number of orbital shells:                                              16
       Number of primitive Cartesian functions:                               13
       Number of Cartesian basis functions:                                   71
       Number of spherical basis functions:                                   56
       Norm type:                                                              2

       Normalised Cartesian orbitals:

                        Set   Shell   Orbital            Exponent    Coefficient

                          1       1    1s                0.050000       0.000000
                                                         0.148931       0.008771
                                                         0.454433       0.026241
                                                         1.335408       0.005818
                                                         4.395399       0.718493
                                                        12.309450       2.903007
                                                        62.914956       1.320675

                          1       2    2s                0.050000       0.000000
                                                         0.148931       0.036066
                                                         0.454433       0.073646
                                                         1.335408       0.667362
                                                         4.395399      -0.111917
                                                        12.309450      -0.053902
                                                        62.914956      -0.747743

                          1       3    3s                0.050000       0.000000
                                                         0.148931       0.072341
                                                         0.454433       0.339134
                                                         1.335408      -0.296204
                                                         4.395399      -0.066370
                                                        12.309450      -0.509964
                                                        62.914956       0.182030

                          1       4    4s                0.050000       0.000000
                                                         0.148931       0.257390
                                                         0.454433      -0.327789
                                                         1.335408      -0.186757
                                                         4.395399      -0.014958
                                                        12.309450      -0.201401
                                                        62.914956       1.590188

                          1       5    5s                0.050000       0.095896
                                                         0.148931      -0.062439
                                                         0.454433       0.011784
                                                         1.335408      -0.100924
                                                         4.395399       0.000000
                                                        12.309450       0.000000
                                                        62.914956       0.000000

                          1       6    2px               0.050000       0.000000
                                                         0.148931       0.002211
                                                         0.454433      -0.015509
                                                         1.335408       1.487193
                                                         4.395399       2.867225
                                                        12.309450       3.872733
                                                        62.914956     -23.794765
                          1       6    2py               0.050000       0.000000
                                                         0.148931       0.002211
                                                         0.454433      -0.015509
                                                         1.335408       1.487193
                                                         4.395399       2.867225
                                                        12.309450       3.872733
                                                        62.914956     -23.794765
                          1       6    2pz               0.050000       0.000000
                                                         0.148931       0.002211
                                                         0.454433      -0.015509
                                                         1.335408       1.487193
                                                         4.395399       2.867225
                                                        12.309450       3.872733
                                                        62.914956     -23.794765

                          1       7    3px               0.050000       0.000000
                                                         0.148931       0.008518
                                                         0.454433       0.481961
                                                         1.335408       0.085170
                                                         4.395399       0.441215
                                                        12.309450      -1.837950
                                                        62.914956      36.698597
                          1       7    3py               0.050000       0.000000
                                                         0.148931       0.008518
                                                         0.454433       0.481961
                                                         1.335408       0.085170
                                                         4.395399       0.441215
                                                        12.309450      -1.837950
                                                        62.914956      36.698597
                          1       7    3pz               0.050000       0.000000
                                                         0.148931       0.008518
                                                         0.454433       0.481961
                                                         1.335408       0.085170
                                                         4.395399       0.441215
                                                        12.309450      -1.837950
                                                        62.914956      36.698597

                          1       8    4px               0.050000       0.000000
                                                         0.148931       0.138320
                                                         0.454433      -0.034294
                                                         1.335408      -0.042535
                                                         4.395399      -0.295522
                                                        12.309450       0.600610
                                                        62.914956     -10.152534
                          1       8    4py               0.050000       0.000000
                                                         0.148931       0.138320
                                                         0.454433      -0.034294
                                                         1.335408      -0.042535
                                                         4.395399      -0.295522
                                                        12.309450       0.600610
                                                        62.914956     -10.152534
                          1       8    4pz               0.050000       0.000000
                                                         0.148931       0.138320
                                                         0.454433      -0.034294
                                                         1.335408      -0.042535
                                                         4.395399      -0.295522
                                                        12.309450       0.600610
                                                        62.914956     -10.152534

                          1       9    5px               0.050000      -0.000964
                                                         0.148931       0.027417
                                                         0.454433       0.328542
                                                         1.335408       0.651611
                                                         4.395399       0.000000
                                                        12.309450       0.000000
                                                        62.914956       0.000000
                          1       9    5py               0.050000      -0.000964
                                                         0.148931       0.027417
                                                         0.454433       0.328542
                                                         1.335408       0.651611
                                                         4.395399       0.000000
                                                        12.309450       0.000000
                                                        62.914956       0.000000
                          1       9    5pz               0.050000      -0.000964
                                                         0.148931       0.027417
                                                         0.454433       0.328542
                                                         1.335408       0.651611
                                                         4.395399       0.000000
                                                        12.309450       0.000000
                                                        62.914956       0.000000

                          1      10    3dx2              0.050000       0.000000
                                                         0.148931       0.011799
                                                         0.454433       0.037044
                                                         1.335408       1.177796
                                                         4.395399      13.187048
                                                        12.309450      -3.718320
                                                        62.914956     245.407483
                          1      10    3dxy              0.050000       0.000000
                                                         0.148931       0.020436
                                                         0.454433       0.064161
                                                         1.335408       2.040003
                                                         4.395399      22.840637
                                                        12.309450      -6.440319
                                                        62.914956     425.058229
                          1      10    3dxz              0.050000       0.000000
                                                         0.148931       0.020436
                                                         0.454433       0.064161
                                                         1.335408       2.040003
                                                         4.395399      22.840637
                                                        12.309450      -6.440319
                                                        62.914956     425.058229
                          1      10    3dy2              0.050000       0.000000
                                                         0.148931       0.011799
                                                         0.454433       0.037044
                                                         1.335408       1.177796
                                                         4.395399      13.187048
                                                        12.309450      -3.718320
                                                        62.914956     245.407483
                          1      10    3dyz              0.050000       0.000000
                                                         0.148931       0.020436
                                                         0.454433       0.064161
                                                         1.335408       2.040003
                                                         4.395399      22.840637
                                                        12.309450      -6.440319
                                                        62.914956     425.058229
                          1      10    3dz2              0.050000       0.000000
                                                         0.148931       0.011799
                                                         0.454433       0.037044
                                                         1.335408       1.177796
                                                         4.395399      13.187048
                                                        12.309450      -3.718320
                                                        62.914956     245.407483

                          1      11    4dx2              0.050000       0.000000
                                                         0.148931      -0.006399
                                                         0.454433       0.341143
                                                         1.335408       1.062793
                                                         4.395399      -7.656182
                                                        12.309450       6.262545
                                                        62.914956    -198.939864
                          1      11    4dxy              0.050000       0.000000
                                                         0.148931      -0.011084
                                                         0.454433       0.590877
                                                         1.335408       1.840811
                                                         4.395399     -13.260897
                                                        12.309450      10.847045
                                                        62.914956    -344.573952
                          1      11    4dxz              0.050000       0.000000
                                                         0.148931      -0.011084
                                                         0.454433       0.590877
                                                         1.335408       1.840811
                                                         4.395399     -13.260897
                                                        12.309450      10.847045
                                                        62.914956    -344.573952
                          1      11    4dy2              0.050000       0.000000
                                                         0.148931      -0.006399
                                                         0.454433       0.341143
                                                         1.335408       1.062793
                                                         4.395399      -7.656182
                                                        12.309450       6.262545
                                                        62.914956    -198.939864
                          1      11    4dyz              0.050000       0.000000
                                                         0.148931      -0.011084
                                                         0.454433       0.590877
                                                         1.335408       1.840811
                                                         4.395399     -13.260897
                                                        12.309450      10.847045
                                                        62.914956    -344.573952
                          1      11    4dz2              0.050000       0.000000
                                                         0.148931      -0.006399
                                                         0.454433       0.341143
                                                         1.335408       1.062793
                                                         4.395399      -7.656182
                                                        12.309450       6.262545
                                                        62.914956    -198.939864

                          1      12    5dx2              0.050000      -0.000167
                                                         0.148931       0.000910
                                                         0.454433       0.391605
                                                         1.335408       0.205296
                                                         4.395399       0.000000
                                                        12.309450       0.000000
                                                        62.914956       0.000000
                          1      12    5dxy              0.050000      -0.000290
                                                         0.148931       0.001577
                                                         0.454433       0.678279
                                                         1.335408       0.355584
                                                         4.395399       0.000000
                                                        12.309450       0.000000
                                                        62.914956       0.000000
                          1      12    5dxz              0.050000      -0.000290
                                                         0.148931       0.001577
                                                         0.454433       0.678279
                                                         1.335408       0.355584
                                                         4.395399       0.000000
                                                        12.309450       0.000000
                                                        62.914956       0.000000
                          1      12    5dy2              0.050000      -0.000167
                                                         0.148931       0.000910
                                                         0.454433       0.391605
                                                         1.335408       0.205296
                                                         4.395399       0.000000
                                                        12.309450       0.000000
                                                        62.914956       0.000000
                          1      12    5dyz              0.050000      -0.000290
                                                         0.148931       0.001577
                                                         0.454433       0.678279
                                                         1.335408       0.355584
                                                         4.395399       0.000000
                                                        12.309450       0.000000
                                                        62.914956       0.000000
                          1      12    5dz2              0.050000      -0.000167
                                                         0.148931       0.000910
                                                         0.454433       0.391605
                                                         1.335408       0.205296
                                                         4.395399       0.000000
                                                        12.309450       0.000000
                                                        62.914956       0.000000

                          1      13    4fx3              0.050000       0.000000
                                                         0.148931       0.001654
                                                         0.454433       0.066745
                                                         1.335408       2.406605
                                                         4.395399      -5.031344
                                                        12.309450      16.622131
                                                        62.914956       4.775823
                          1      13    4fx2y             0.050000       0.000000
                                                         0.148931       0.003699
                                                         0.454433       0.149247
                                                         1.335408       5.381333
                                                         4.395399     -11.250428
                                                        12.309450      37.168214
                                                        62.914956      10.679064
                          1      13    4fx2z             0.050000       0.000000
                                                         0.148931       0.003699
                                                         0.454433       0.149247
                                                         1.335408       5.381333
                                                         4.395399     -11.250428
                                                        12.309450      37.168214
                                                        62.914956      10.679064
                          1      13    4fxy2             0.050000       0.000000
                                                         0.148931       0.003699
                                                         0.454433       0.149247
                                                         1.335408       5.381333
                                                         4.395399     -11.250428
                                                        12.309450      37.168214
                                                        62.914956      10.679064
                          1      13    4fxyz             0.050000       0.000000
                                                         0.148931       0.006406
                                                         0.454433       0.258503
                                                         1.335408       9.320743
                                                         4.395399     -19.486313
                                                        12.309450      64.377235
                                                        62.914956      18.496681
                          1      13    4fxz2             0.050000       0.000000
                                                         0.148931       0.003699
                                                         0.454433       0.149247
                                                         1.335408       5.381333
                                                         4.395399     -11.250428
                                                        12.309450      37.168214
                                                        62.914956      10.679064
                          1      13    4fy3              0.050000       0.000000
                                                         0.148931       0.001654
                                                         0.454433       0.066745
                                                         1.335408       2.406605
                                                         4.395399      -5.031344
                                                        12.309450      16.622131
                                                        62.914956       4.775823
                          1      13    4fy2z             0.050000       0.000000
                                                         0.148931       0.003699
                                                         0.454433       0.149247
                                                         1.335408       5.381333
                                                         4.395399     -11.250428
                                                        12.309450      37.168214
                                                        62.914956      10.679064
                          1      13    4fyz2             0.050000       0.000000
                                                         0.148931       0.003699
                                                         0.454433       0.149247
                                                         1.335408       5.381333
                                                         4.395399     -11.250428
                                                        12.309450      37.168214
                                                        62.914956      10.679064
                          1      13    4fz3              0.050000       0.000000
                                                         0.148931       0.001654
                                                         0.454433       0.066745
                                                         1.335408       2.406605
                                                         4.395399      -5.031344
                                                        12.309450      16.622131
                                                        62.914956       4.775823

                          1      14    5fx3              0.050000      -0.000035
                                                         0.148931       0.000216
                                                         0.454433       0.256015
                                                         1.335408      -0.160820
                                                         4.395399       0.000000
                                                        12.309450       0.000000
                                                        62.914956       0.000000
                          1      14    5fx2y             0.050000      -0.000077
                                                         0.148931       0.000483
                                                         0.454433       0.572467
                                                         1.335408      -0.359605
                                                         4.395399       0.000000
                                                        12.309450       0.000000
                                                        62.914956       0.000000
                          1      14    5fx2z             0.050000      -0.000077
                                                         0.148931       0.000483
                                                         0.454433       0.572467
                                                         1.335408      -0.359605
                                                         4.395399       0.000000
                                                        12.309450       0.000000
                                                        62.914956       0.000000
                          1      14    5fxy2             0.050000      -0.000077
                                                         0.148931       0.000483
                                                         0.454433       0.572467
                                                         1.335408      -0.359605
                                                         4.395399       0.000000
                                                        12.309450       0.000000
                                                        62.914956       0.000000
                          1      14    5fxyz             0.050000      -0.000134
                                                         0.148931       0.000837
                                                         0.454433       0.991542
                                                         1.335408      -0.622854
                                                         4.395399       0.000000
                                                        12.309450       0.000000
                                                        62.914956       0.000000
                          1      14    5fxz2             0.050000      -0.000077
                                                         0.148931       0.000483
                                                         0.454433       0.572467
                                                         1.335408      -0.359605
                                                         4.395399       0.000000
                                                        12.309450       0.000000
                                                        62.914956       0.000000
                          1      14    5fy3              0.050000      -0.000035
                                                         0.148931       0.000216
                                                         0.454433       0.256015
                                                         1.335408      -0.160820
                                                         4.395399       0.000000
                                                        12.309450       0.000000
                                                        62.914956       0.000000
                          1      14    5fy2z             0.050000      -0.000077
                                                         0.148931       0.000483
                                                         0.454433       0.572467
                                                         1.335408      -0.359605
                                                         4.395399       0.000000
                                                        12.309450       0.000000
                                                        62.914956       0.000000
                          1      14    5fyz2             0.050000      -0.000077
                                                         0.148931       0.000483
                                                         0.454433       0.572467
                                                         1.335408      -0.359605
                                                         4.395399       0.000000
                                                        12.309450       0.000000
                                                        62.914956       0.000000
                          1      14    5fz3              0.050000      -0.000035
                                                         0.148931       0.000216
                                                         0.454433       0.256015
                                                         1.335408      -0.160820
                                                         4.395399       0.000000
                                                        12.309450       0.000000
                                                        62.914956       0.000000

                          1      15    5gx4              0.050000       0.000008
                                                         0.148931       0.000769
                                                         0.454433       0.118509
                                                         1.335408       0.001274
                                                         4.395399       0.000000
                                                        12.309450       0.000000
                                                        62.914956       0.000000
                          1      15    5gx3y             0.050000       0.000022
                                                         0.148931       0.002034
                                                         0.454433       0.313545
                                                         1.335408       0.003370
                                                         4.395399       0.000000
                                                        12.309450       0.000000
                                                        62.914956       0.000000
                          1      15    5gx3z             0.050000       0.000022
                                                         0.148931       0.002034
                                                         0.454433       0.313545
                                                         1.335408       0.003370
                                                         4.395399       0.000000
                                                        12.309450       0.000000
                                                        62.914956       0.000000
                          1      15    5gx2y2            0.050000       0.000029
                                                         0.148931       0.002626
                                                         0.454433       0.404785
                                                         1.335408       0.004351
                                                         4.395399       0.000000
                                                        12.309450       0.000000
                                                        62.914956       0.000000
                          1      15    5gx2yz            0.050000       0.000050
                                                         0.148931       0.004548
                                                         0.454433       0.701109
                                                         1.335408       0.007536
                                                         4.395399       0.000000
                                                        12.309450       0.000000
                                                        62.914956       0.000000
                          1      15    5gx2z2            0.050000       0.000029
                                                         0.148931       0.002626
                                                         0.454433       0.404785
                                                         1.335408       0.004351
                                                         4.395399       0.000000
                                                        12.309450       0.000000
                                                        62.914956       0.000000
                          1      15    5gxy3             0.050000       0.000022
                                                         0.148931       0.002034
                                                         0.454433       0.313545
                                                         1.335408       0.003370
                                                         4.395399       0.000000
                                                        12.309450       0.000000
                                                        62.914956       0.000000
                          1      15    5gxy2z            0.050000       0.000050
                                                         0.148931       0.004548
                                                         0.454433       0.701109
                                                         1.335408       0.007536
                                                         4.395399       0.000000
                                                        12.309450       0.000000
                                                        62.914956       0.000000
                          1      15    5gxyz2            0.050000       0.000050
                                                         0.148931       0.004548
                                                         0.454433       0.701109
                                                         1.335408       0.007536
                                                         4.395399       0.000000
                                                        12.309450       0.000000
                                                        62.914956       0.000000
                          1      15    5gxz3             0.050000       0.000022
                                                         0.148931       0.002034
                                                         0.454433       0.313545
                                                         1.335408       0.003370
                                                         4.395399       0.000000
                                                        12.309450       0.000000
                                                        62.914956       0.000000
                          1      15    5gy4              0.050000       0.000008
                                                         0.148931       0.000769
                                                         0.454433       0.118509
                                                         1.335408       0.001274
                                                         4.395399       0.000000
                                                        12.309450       0.000000
                                                        62.914956       0.000000
                          1      15    5gy3z             0.050000       0.000022
                                                         0.148931       0.002034
                                                         0.454433       0.313545
                                                         1.335408       0.003370
                                                         4.395399       0.000000
                                                        12.309450       0.000000
                                                        62.914956       0.000000
                          1      15    5gy2z2            0.050000       0.000029
                                                         0.148931       0.002626
                                                         0.454433       0.404785
                                                         1.335408       0.004351
                                                         4.395399       0.000000
                                                        12.309450       0.000000
                                                        62.914956       0.000000
                          1      15    5gyz3             0.050000       0.000022
                                                         0.148931       0.002034
                                                         0.454433       0.313545
                                                         1.335408       0.003370
                                                         4.395399       0.000000
                                                        12.309450       0.000000
                                                        62.914956       0.000000
                          1      15    5gz4              0.050000       0.000008
                                                         0.148931       0.000769
                                                         0.454433       0.118509
                                                         1.335408       0.001274
                                                         4.395399       0.000000
                                                        12.309450       0.000000
                                                        62.914956       0.000000

                          2       1    1s            27032.341107       0.827485
                                                      4052.439160       2.350354
                                                       922.349653       2.989583
                                                       261.277359       5.859993
                                                        85.309424       4.920023
                                                        31.080802       6.525964

     RI Auxiliary Basis Set             RI_aug-TZVP-MOLOPT-ae_N_RI_084_s_p_d_f_g

       Number of orbital shell sets:                                          20
       Number of orbital shells:                                              20
       Number of primitive Cartesian functions:                               20
       Number of Cartesian basis functions:                                  118
       Number of spherical basis functions:                                   84
       Norm type:                                                              2

       Normalised Cartesian orbitals:

                        Set   Shell   Orbital            Exponent    Coefficient

                          1       1    1s                0.394977       0.355090

                          2       1    8px               0.592593       0.741114
                          2       1    8py               0.592593       0.741114
                          2       1    8pz               0.592593       0.741114

                          3       1   12dx2              0.622193       0.717428
                          3       1   12dxy              0.622193       1.242621
                          3       1   12dxz              0.622193       1.242621
                          3       1   12dy2              0.622193       0.717428
                          3       1   12dyz              0.622193       1.242621
                          3       1   12dz2              0.622193       0.717428

                          4       1   15fx3              0.748820       0.767899
                          4       1   15fx2y             0.748820       1.717074
                          4       1   15fx2z             0.748820       1.717074
                          4       1   15fxy2             0.748820       1.717074
                          4       1   15fxyz             0.748820       2.974059
                          4       1   15fxz2             0.748820       1.717074
                          4       1   15fy3              0.748820       0.767899
                          4       1   15fy2z             0.748820       1.717074
                          4       1   15fyz2             0.748820       1.717074
                          4       1   15fz3              0.748820       0.767899

                          5       1    2s                0.758177       0.579080

                          6       1   20hx5              0.762638       0.307524
                          6       1   20hx4y             0.762638       0.922572
                          6       1   20hx4z             0.762638       0.922572
                          6       1   20hx3y2            0.762638       1.409252
                          6       1   20hx3yz            0.762638       2.440896
                          6       1   20hx3z2            0.762638       1.409252
                          6       1   20hx2y3            0.762638       1.409252
                          6       1   20hx2y2z           0.762638       3.151183
                          6       1   20hx2yz2           0.762638       3.151183
                          6       1   20hx2z3            0.762638       1.409252
                          6       1   20hxy4             0.762638       0.922572
                          6       1   20hxy3z            0.762638       2.440896
                          6       1   20hxy2z2           0.762638       3.151183
                          6       1   20hxyz3            0.762638       2.440896
                          6       1   20hxz4             0.762638       0.922572
                          6       1   20hy5              0.762638       0.307524
                          6       1   20hy4z             0.762638       0.922572
                          6       1   20hy3z2            0.762638       1.409252
                          6       1   20hy2z3            0.762638       1.409252
                          6       1   20hyz4             0.762638       0.922572
                          6       1   20hz5              0.762638       0.307524

                          7       1   18gx4              0.766762       0.536108
                          7       1   18gx3y             0.766762       1.418409
                          7       1   18gx3z             0.766762       1.418409
                          7       1   18gx2y2            0.766762       1.831158
                          7       1   18gx2yz            0.766762       3.171659
                          7       1   18gx2z2            0.766762       1.831158
                          7       1   18gxy3             0.766762       1.418409
                          7       1   18gxy2z            0.766762       3.171659
                          7       1   18gxyz2            0.766762       3.171659
                          7       1   18gxz3             0.766762       1.418409
                          7       1   18gy4              0.766762       0.536108
                          7       1   18gy3z             0.766762       1.418409
                          7       1   18gy2z2            0.766762       1.831158
                          7       1   18gyz3             0.766762       1.418409
                          7       1   18gz4              0.766762       0.536108

                          8       1    9px               1.302856       1.984087
                          8       1    9py               1.302856       1.984087
                          8       1    9pz               1.302856       1.984087

                          9       1   13dx2              1.576763       3.651747
                          9       1   13dxy              1.576763       6.325011
                          9       1   13dxz              1.576763       6.325011
                          9       1   13dy2              1.576763       3.651747
                          9       1   13dyz              1.576763       6.325011
                          9       1   13dz2              1.576763       3.651747

                         10       1   16fx3              1.850605       5.880449
                         10       1   16fx2y             1.850605      13.149085
                         10       1   16fx2z             1.850605      13.149085
                         10       1   16fxy2             1.850605      13.149085
                         10       1   16fxyz             1.850605      22.774883
                         10       1   16fxz2             1.850605      13.149085
                         10       1   16fy3              1.850605       5.880449
                         10       1   16fy2z             1.850605      13.149085
                         10       1   16fyz2             1.850605      13.149085
                         10       1   16fz3              1.850605       5.880449

                         11       1    3s                2.019986       1.207595

                         12       1   19gx4              2.247734      10.321295
                         12       1   19gx3y             2.247734      27.307580
                         12       1   19gx3z             2.247734      27.307580
                         12       1   19gx2y2            2.247734      35.253935
                         12       1   19gx2yz            2.247734      61.061606
                         12       1   19gx2z2            2.247734      35.253935
                         12       1   19gxy3             2.247734      27.307580
                         12       1   19gxy2z            2.247734      61.061606
                         12       1   19gxyz2            2.247734      61.061606
                         12       1   19gxz3             2.247734      27.307580
                         12       1   19gy4              2.247734      10.321295
                         12       1   19gy3z             2.247734      27.307580
                         12       1   19gy2z2            2.247734      35.253935
                         12       1   19gyz3             2.247734      27.307580
                         12       1   19gz4              2.247734      10.321295

                         13       1   10px               4.315805       8.866810
                         13       1   10py               4.315805       8.866810
                         13       1   10pz               4.315805       8.866810

                         14       1   17fx3              5.299035      62.718738
                         14       1   17fx2y             5.299035     140.243362
                         14       1   17fx2z             5.299035     140.243362
                         14       1   17fxy2             5.299035     140.243362
                         14       1   17fxyz             5.299035     242.908628
                         14       1   17fxz2             5.299035     140.243362
                         14       1   17fy3              5.299035      62.718738
                         14       1   17fy2z             5.299035     140.243362
                         14       1   17fyz2             5.299035     140.243362
                         14       1   17fz3              5.299035      62.718738

                         15       1   14dx2              5.831670      36.020277
                         15       1   14dxy              5.831670      62.388950
                         15       1   14dxz              5.831670      62.388950
                         15       1   14dy2              5.831670      36.020277
                         15       1   14dyz              5.831670      62.388950
                         15       1   14dz2              5.831670      36.020277

                         16       1    4s                6.133734       2.777818

                         17       1   11px              16.187533      46.282405
                         17       1   11py              16.187533      46.282405
                         17       1   11pz              16.187533      46.282405

                         18       1    5s               18.509850       6.360076

                         19       1    6s               54.993071      14.392660

                         20       1    7s              162.486381      32.435666

       Atomic covalent radius [Angstrom]:                                  0.730

       Atomic van der Waals radius [Angstrom]:                             1.520

     The atoms of this atomic kind are PAW atoms (GAPW):
       Hard Gaussian function radius:                                      1.512
       Rho0 radius:                                                        1.512
       Maximum GTO radius used for PAW projector construction:            24.566

     GAPW Soft Basis Set                                 aug-TZVP-MOLOPT-ae_soft

       Number of orbital shell sets:                                           2
       Number of orbital shells:                                              16
       Number of primitive Cartesian functions:                                5
       Number of Cartesian basis functions:                                   71
       Number of spherical basis functions:                                   56
       Norm type:                                                              2

       Normalised Cartesian orbitals:

                        Set   Shell   Orbital            Exponent    Coefficient

                          1       1    1s                0.050000       0.000000
                                                         0.148931       0.008771
                                                         0.454433       0.026241
                                                         1.335408       0.005818
                                                         4.395399       0.000000

                          1       2    2s                0.050000       0.000000
                                                         0.148931       0.036066
                                                         0.454433       0.073646
                                                         1.335408       0.667362
                                                         4.395399       0.000000

                          1       3    3s                0.050000       0.000000
                                                         0.148931       0.072341
                                                         0.454433       0.339134
                                                         1.335408      -0.296204
                                                         4.395399       0.000000

                          1       4    4s                0.050000       0.000000
                                                         0.148931       0.257390
                                                         0.454433      -0.327789
                                                         1.335408      -0.186757
                                                         4.395399       0.000000

                          1       5    5s                0.050000       0.095896
                                                         0.148931      -0.062439
                                                         0.454433       0.011784
                                                         1.335408      -0.100924
                                                         4.395399       0.000000

                          1       6    2px               0.050000       0.000000
                                                         0.148931       0.002211
                                                         0.454433      -0.015509
                                                         1.335408       1.487193
                                                         4.395399       0.000000
                          1       6    2py               0.050000       0.000000
                                                         0.148931       0.002211
                                                         0.454433      -0.015509
                                                         1.335408       1.487193
                                                         4.395399       0.000000
                          1       6    2pz               0.050000       0.000000
                                                         0.148931       0.002211
                                                         0.454433      -0.015509
                                                         1.335408       1.487193
                                                         4.395399       0.000000

                          1       7    3px               0.050000       0.000000
                                                         0.148931       0.008518
                                                         0.454433       0.481961
                                                         1.335408       0.085170
                                                         4.395399       0.000000
                          1       7    3py               0.050000       0.000000
                                                         0.148931       0.008518
                                                         0.454433       0.481961
                                                         1.335408       0.085170
                                                         4.395399       0.000000
                          1       7    3pz               0.050000       0.000000
                                                         0.148931       0.008518
                                                         0.454433       0.481961
                                                         1.335408       0.085170
                                                         4.395399       0.000000

                          1       8    4px               0.050000       0.000000
                                                         0.148931       0.138320
                                                         0.454433      -0.034294
                                                         1.335408      -0.042535
                                                         4.395399       0.000000
                          1       8    4py               0.050000       0.000000
                                                         0.148931       0.138320
                                                         0.454433      -0.034294
                                                         1.335408      -0.042535
                                                         4.395399       0.000000
                          1       8    4pz               0.050000       0.000000
                                                         0.148931       0.138320
                                                         0.454433      -0.034294
                                                         1.335408      -0.042535
                                                         4.395399       0.000000

                          1       9    5px               0.050000      -0.000964
                                                         0.148931       0.027417
                                                         0.454433       0.328542
                                                         1.335408       0.651611
                                                         4.395399       0.000000
                          1       9    5py               0.050000      -0.000964
                                                         0.148931       0.027417
                                                         0.454433       0.328542
                                                         1.335408       0.651611
                                                         4.395399       0.000000
                          1       9    5pz               0.050000      -0.000964
                                                         0.148931       0.027417
                                                         0.454433       0.328542
                                                         1.335408       0.651611
                                                         4.395399       0.000000

                          1      10    3dx2              0.050000       0.000000
                                                         0.148931       0.011799
                                                         0.454433       0.037044
                                                         1.335408       1.177796
                                                         4.395399       0.000000
                          1      10    3dxy              0.050000       0.000000
                                                         0.148931       0.020436
                                                         0.454433       0.064161
                                                         1.335408       2.040003
                                                         4.395399       0.000000
                          1      10    3dxz              0.050000       0.000000
                                                         0.148931       0.020436
                                                         0.454433       0.064161
                                                         1.335408       2.040003
                                                         4.395399       0.000000
                          1      10    3dy2              0.050000       0.000000
                                                         0.148931       0.011799
                                                         0.454433       0.037044
                                                         1.335408       1.177796
                                                         4.395399       0.000000
                          1      10    3dyz              0.050000       0.000000
                                                         0.148931       0.020436
                                                         0.454433       0.064161
                                                         1.335408       2.040003
                                                         4.395399       0.000000
                          1      10    3dz2              0.050000       0.000000
                                                         0.148931       0.011799
                                                         0.454433       0.037044
                                                         1.335408       1.177796
                                                         4.395399       0.000000

                          1      11    4dx2              0.050000       0.000000
                                                         0.148931      -0.006399
                                                         0.454433       0.341143
                                                         1.335408       1.062793
                                                         4.395399       0.000000
                          1      11    4dxy              0.050000       0.000000
                                                         0.148931      -0.011084
                                                         0.454433       0.590877
                                                         1.335408       1.840811
                                                         4.395399       0.000000
                          1      11    4dxz              0.050000       0.000000
                                                         0.148931      -0.011084
                                                         0.454433       0.590877
                                                         1.335408       1.840811
                                                         4.395399       0.000000
                          1      11    4dy2              0.050000       0.000000
                                                         0.148931      -0.006399
                                                         0.454433       0.341143
                                                         1.335408       1.062793
                                                         4.395399       0.000000
                          1      11    4dyz              0.050000       0.000000
                                                         0.148931      -0.011084
                                                         0.454433       0.590877
                                                         1.335408       1.840811
                                                         4.395399       0.000000
                          1      11    4dz2              0.050000       0.000000
                                                         0.148931      -0.006399
                                                         0.454433       0.341143
                                                         1.335408       1.062793
                                                         4.395399       0.000000

                          1      12    5dx2              0.050000      -0.000167
                                                         0.148931       0.000910
                                                         0.454433       0.391605
                                                         1.335408       0.205296
                                                         4.395399       0.000000
                          1      12    5dxy              0.050000      -0.000290
                                                         0.148931       0.001577
                                                         0.454433       0.678279
                                                         1.335408       0.355584
                                                         4.395399       0.000000
                          1      12    5dxz              0.050000      -0.000290
                                                         0.148931       0.001577
                                                         0.454433       0.678279
                                                         1.335408       0.355584
                                                         4.395399       0.000000
                          1      12    5dy2              0.050000      -0.000167
                                                         0.148931       0.000910
                                                         0.454433       0.391605
                                                         1.335408       0.205296
                                                         4.395399       0.000000
                          1      12    5dyz              0.050000      -0.000290
                                                         0.148931       0.001577
                                                         0.454433       0.678279
                                                         1.335408       0.355584
                                                         4.395399       0.000000
                          1      12    5dz2              0.050000      -0.000167
                                                         0.148931       0.000910
                                                         0.454433       0.391605
                                                         1.335408       0.205296
                                                         4.395399       0.000000

                          1      13    4fx3              0.050000       0.000000
                                                         0.148931       0.001654
                                                         0.454433       0.066745
                                                         1.335408       2.406605
                                                         4.395399      -5.031344
                          1      13    4fx2y             0.050000       0.000000
                                                         0.148931       0.003699
                                                         0.454433       0.149247
                                                         1.335408       5.381333
                                                         4.395399     -11.250428
                          1      13    4fx2z             0.050000       0.000000
                                                         0.148931       0.003699
                                                         0.454433       0.149247
                                                         1.335408       5.381333
                                                         4.395399     -11.250428
                          1      13    4fxy2             0.050000       0.000000
                                                         0.148931       0.003699
                                                         0.454433       0.149247
                                                         1.335408       5.381333
                                                         4.395399     -11.250428
                          1      13    4fxyz             0.050000       0.000000
                                                         0.148931       0.006406
                                                         0.454433       0.258503
                                                         1.335408       9.320743
                                                         4.395399     -19.486313
                          1      13    4fxz2             0.050000       0.000000
                                                         0.148931       0.003699
                                                         0.454433       0.149247
                                                         1.335408       5.381333
                                                         4.395399     -11.250428
                          1      13    4fy3              0.050000       0.000000
                                                         0.148931       0.001654
                                                         0.454433       0.066745
                                                         1.335408       2.406605
                                                         4.395399      -5.031344
                          1      13    4fy2z             0.050000       0.000000
                                                         0.148931       0.003699
                                                         0.454433       0.149247
                                                         1.335408       5.381333
                                                         4.395399     -11.250428
                          1      13    4fyz2             0.050000       0.000000
                                                         0.148931       0.003699
                                                         0.454433       0.149247
                                                         1.335408       5.381333
                                                         4.395399     -11.250428
                          1      13    4fz3              0.050000       0.000000
                                                         0.148931       0.001654
                                                         0.454433       0.066745
                                                         1.335408       2.406605
                                                         4.395399      -5.031344

                          1      14    5fx3              0.050000      -0.000035
                                                         0.148931       0.000216
                                                         0.454433       0.256015
                                                         1.335408      -0.160820
                                                         4.395399       0.000000
                          1      14    5fx2y             0.050000      -0.000077
                                                         0.148931       0.000483
                                                         0.454433       0.572467
                                                         1.335408      -0.359605
                                                         4.395399       0.000000
                          1      14    5fx2z             0.050000      -0.000077
                                                         0.148931       0.000483
                                                         0.454433       0.572467
                                                         1.335408      -0.359605
                                                         4.395399       0.000000
                          1      14    5fxy2             0.050000      -0.000077
                                                         0.148931       0.000483
                                                         0.454433       0.572467
                                                         1.335408      -0.359605
                                                         4.395399       0.000000
                          1      14    5fxyz             0.050000      -0.000134
                                                         0.148931       0.000837
                                                         0.454433       0.991542
                                                         1.335408      -0.622854
                                                         4.395399       0.000000
                          1      14    5fxz2             0.050000      -0.000077
                                                         0.148931       0.000483
                                                         0.454433       0.572467
                                                         1.335408      -0.359605
                                                         4.395399       0.000000
                          1      14    5fy3              0.050000      -0.000035
                                                         0.148931       0.000216
                                                         0.454433       0.256015
                                                         1.335408      -0.160820
                                                         4.395399       0.000000
                          1      14    5fy2z             0.050000      -0.000077
                                                         0.148931       0.000483
                                                         0.454433       0.572467
                                                         1.335408      -0.359605
                                                         4.395399       0.000000
                          1      14    5fyz2             0.050000      -0.000077
                                                         0.148931       0.000483
                                                         0.454433       0.572467
                                                         1.335408      -0.359605
                                                         4.395399       0.000000
                          1      14    5fz3              0.050000      -0.000035
                                                         0.148931       0.000216
                                                         0.454433       0.256015
                                                         1.335408      -0.160820
                                                         4.395399       0.000000

                          1      15    5gx4              0.050000       0.000008
                                                         0.148931       0.000769
                                                         0.454433       0.118509
                                                         1.335408       0.001274
                                                         4.395399       0.000000
                          1      15    5gx3y             0.050000       0.000022
                                                         0.148931       0.002034
                                                         0.454433       0.313545
                                                         1.335408       0.003370
                                                         4.395399       0.000000
                          1      15    5gx3z             0.050000       0.000022
                                                         0.148931       0.002034
                                                         0.454433       0.313545
                                                         1.335408       0.003370
                                                         4.395399       0.000000
                          1      15    5gx2y2            0.050000       0.000029
                                                         0.148931       0.002626
                                                         0.454433       0.404785
                                                         1.335408       0.004351
                                                         4.395399       0.000000
                          1      15    5gx2yz            0.050000       0.000050
                                                         0.148931       0.004548
                                                         0.454433       0.701109
                                                         1.335408       0.007536
                                                         4.395399       0.000000
                          1      15    5gx2z2            0.050000       0.000029
                                                         0.148931       0.002626
                                                         0.454433       0.404785
                                                         1.335408       0.004351
                                                         4.395399       0.000000
                          1      15    5gxy3             0.050000       0.000022
                                                         0.148931       0.002034
                                                         0.454433       0.313545
                                                         1.335408       0.003370
                                                         4.395399       0.000000
                          1      15    5gxy2z            0.050000       0.000050
                                                         0.148931       0.004548
                                                         0.454433       0.701109
                                                         1.335408       0.007536
                                                         4.395399       0.000000
                          1      15    5gxyz2            0.050000       0.000050
                                                         0.148931       0.004548
                                                         0.454433       0.701109
                                                         1.335408       0.007536
                                                         4.395399       0.000000
                          1      15    5gxz3             0.050000       0.000022
                                                         0.148931       0.002034
                                                         0.454433       0.313545
                                                         1.335408       0.003370
                                                         4.395399       0.000000
                          1      15    5gy4              0.050000       0.000008
                                                         0.148931       0.000769
                                                         0.454433       0.118509
                                                         1.335408       0.001274
                                                         4.395399       0.000000
                          1      15    5gy3z             0.050000       0.000022
                                                         0.148931       0.002034
                                                         0.454433       0.313545
                                                         1.335408       0.003370
                                                         4.395399       0.000000
                          1      15    5gy2z2            0.050000       0.000029
                                                         0.148931       0.002626
                                                         0.454433       0.404785
                                                         1.335408       0.004351
                                                         4.395399       0.000000
                          1      15    5gyz3             0.050000       0.000022
                                                         0.148931       0.002034
                                                         0.454433       0.313545
                                                         1.335408       0.003370
                                                         4.395399       0.000000
                          1      15    5gz4              0.050000       0.000008
                                                         0.148931       0.000769
                                                         0.454433       0.118509
                                                         1.335408       0.001274
                                                         4.395399       0.000000

                          2       1    1s         

     AE Potential information for                                            ALL

       Description:                                       All-electron potential
                                          Krack, Parrinello, PCCP 2, 2105 (2000)

       Gaussian exponent of the core charge distribution:               8.154466
       Electronic configuration (s p d ...):                           4   4   0

  4. Atomic kind: H                                     Number of atoms:       4

     Orbital Basis Set                                        aug-TZVP-MOLOPT-ae

       Number of orbital shell sets:                                           1
       Number of orbital shells:                                               9
       Number of primitive Cartesian functions:                                6
       Number of Cartesian basis functions:                                   25
       Number of spherical basis functions:                                   23
       Norm type:                                                              2

       Normalised Cartesian orbitals:

                        Set   Shell   Orbital            Exponent    Coefficient

                          1       1    1s                0.030000       0.000000
                                                         0.091371      -0.049397
                                                         0.293823      -0.051765
                                                         1.065127       0.831136
                                                         4.947701      -0.270539
                                                        34.177738      -6.423540

                          1       2    2s                0.030000       0.000000
                                                         0.091371      -0.041080
                                                         0.293823       0.227881
                                                         1.065127       0.154529
                                                         4.947701       0.528758
                                                        34.177738       3.211471

                          1       3    3s                0.030000       0.000000
                                                         0.091371       0.076395
                                                         0.293823       0.077306
                                                         1.065127       0.164523
                                                         4.947701      -0.040048
                                                        34.177738      -1.131577

                          1       4    4s                0.030000       0.043550
                                                         0.091371      -0.026138
                                                         0.293823      -0.246542
                                                         1.065127      -0.077212
                                                         4.947701       0.000000
                                                        34.177738       0.000000

                          1       5    2px               0.030000       0.000000
                                                         0.091371       0.008886
                                                         0.293823      -0.007684
                                                         1.065127       1.416453
                                                         4.947701       1.341091
                                                        34.177738     -11.084238
                          1       5    2py               0.030000       0.000000
                                                         0.091371       0.008886
                                                         0.293823      -0.007684
                                                         1.065127       1.416453
                                                         4.947701       1.341091
                                                        34.177738     -11.084238
                          1       5    2pz               0.030000       0.000000
                                                         0.091371       0.008886
                                                         0.293823      -0.007684
                                                         1.065127       1.416453
                                                         4.947701       1.341091
                                                        34.177738     -11.084238

                          1       6    3px               0.030000       0.000000
                                                         0.091371      -0.013062
                                                         0.293823       0.330130
                                                         1.065127       0.106963
                                                         4.947701      -0.549928
                                                        34.177738       9.643751
                          1       6    3py               0.030000       0.000000
                                                         0.091371      -0.013062
                                                         0.293823       0.330130
                                                         1.065127       0.106963
                                                         4.947701      -0.549928
                                                        34.177738       9.643751
                          1       6    3pz               0.030000       0.000000
                                                         0.091371      -0.013062
                                                         0.293823       0.330130
                                                         1.065127       0.106963
                                                         4.947701      -0.549928
                                                        34.177738       9.643751

                          1       7    4px               0.030000       0.014060
                                                         0.091371       0.022273
                                                         0.293823      -0.026384
                                                         1.065127       0.024249
                                                         4.947701       0.000000
                                                        34.177738       0.000000
                          1       7    4py               0.030000       0.014060
                                                         0.091371       0.022273
                                                         0.293823      -0.026384
                                                         1.065127       0.024249
                                                         4.947701       0.000000
                                                        34.177738       0.000000
                          1       7    4pz               0.030000       0.014060
                                                         0.091371       0.022273
                                                         0.293823      -0.026384
                                                         1.065127       0.024249
                                                         4.947701       0.000000
                                                        34.177738       0.000000

                          1       8    3dx2              0.030000       0.000000
                                                         0.091371      -0.004737
                                                         0.293823       0.052231
                                                         1.065127       1.617163
                                                         4.947701      -1.124420
                                                        34.177738       9.702470
                          1       8    3dxy              0.030000       0.000000
                                                         0.091371      -0.008204
                                                         0.293823       0.090468
                                                         1.065127       2.801009
                                                         4.947701      -1.947552
                                                        34.177738      16.805171
                          1       8    3dxz              0.030000       0.000000
                                                         0.091371      -0.008204
                                                         0.293823       0.090468
                                                         1.065127       2.801009
                                                         4.947701      -1.947552
                                                        34.177738      16.805171
                          1       8    3dy2              0.030000       0.000000
                                                         0.091371      -0.004737
                                                         0.293823       0.052231
                                                         1.065127       1.617163
                                                         4.947701      -1.124420
                                                        34.177738       9.702470
                          1       8    3dyz              0.030000       0.000000
                                                         0.091371      -0.008204
                                                         0.293823       0.090468
                                                         1.065127       2.801009
                                                         4.947701      -1.947552
                                                        34.177738      16.805171
                          1       8    3dz2              0.030000       0.000000
                                                         0.091371      -0.004737
                                                         0.293823       0.052231
                                                         1.065127       1.617163
                                                         4.947701      -1.124420
                                                        34.177738       9.702470

                          1       9    4dx2              0.030000       0.002444
                                                         0.091371       0.004703
                                                         0.293823       0.069647
                                                         1.065127       0.196246
                                                         4.947701       0.000000
                                                        34.177738       0.000000
                          1       9    4dxy              0.030000       0.004233
                                                         0.091371       0.008146
                                                         0.293823       0.120632
                                                         1.065127       0.339908
                                                         4.947701       0.000000
                                                        34.177738       0.000000
                          1       9    4dxz              0.030000       0.004233
                                                         0.091371       0.008146
                                                         0.293823       0.120632
                                                         1.065127       0.339908
                                                         4.947701       0.000000
                                                        34.177738       0.000000
                          1       9    4dy2              0.030000       0.002444
                                                         0.091371       0.004703
                                                         0.293823       0.069647
                                                         1.065127       0.196246
                                                         4.947701       0.000000
                                                        34.177738       0.000000
                          1       9    4dyz              0.030000       0.004233
                                                         0.091371       0.008146
                                                         0.293823       0.120632
                                                         1.065127       0.339908
                                                         4.947701       0.000000
                                                        34.177738       0.000000
                          1       9    4dz2              0.030000       0.002444
                                                         0.091371       0.004703
                                                         0.293823       0.069647
                                                         1.065127       0.196246
                                                         4.947701       0.000000
                                                        34.177738       0.000000

     RI Auxiliary Basis Set             RI_aug-TZVP-MOLOPT-ae_N_RI_023_s_p_d_f_g

       Number of orbital shell sets:                                           9
       Number of orbital shells:                                               9
       Number of primitive Cartesian functions:                                9
       Number of Cartesian basis functions:                                   25
       Number of spherical basis functions:                                   23
       Norm type:                                                              2

       Normalised Cartesian orbitals:

                        Set   Shell   Orbital            Exponent    Coefficient

                          1       1    5px               0.199704       0.190293
                          1       1    5py               0.199704       0.190293
                          1       1    5pz               0.199704       0.190293

                          2       1    8dx2              0.371061       0.290361
                          2       1    8dxy              0.371061       0.502921
                          2       1    8dxz              0.371061       0.502921
                          2       1    8dy2              0.371061       0.290361
                          2       1    8dyz              0.371061       0.502921
                          2       1    8dz2              0.371061       0.290361

                          3       1    1s                0.487032       0.415507

                          4       1    6px               0.587762       0.733571
                          4       1    6py               0.587762       0.733571
                          4       1    6pz               0.587762       0.733571

                          5       1    9dx2              1.486370       3.293301
                          5       1    9dxy              1.486370       5.704165
                          5       1    9dxz              1.486370       5.704165
                          5       1    9dy2              1.486370       3.293301
                          5       1    9dyz              1.486370       5.704165
                          5       1    9dz2              1.486370       3.293301

                          6       1    2s                1.774445       1.095739

                          7       1    7px               2.162097       3.737094
                          7       1    7py               2.162097       3.737094
                          7       1    7pz               2.162097       3.737094

                          8       1    3s                6.464982       2.889586

                          9       1    4s               23.554401       7.620161

       Atomic covalent radius [Angstrom]:                                  0.320

       Atomic van der Waals radius [Angstrom]:                             1.090

     The atoms of this atomic kind are PAW atoms (GAPW):
       Hard Gaussian function radius:                                      1.200
       Rho0 radius:                                                        1.200
       Maximum GTO radius used for PAW projector construction:            24.566

     GAPW Soft Basis Set                                 aug-TZVP-MOLOPT-ae_soft

       Number of orbital shell sets:                                           1
       Number of orbital shells:                                               9
       Number of primitive Cartesian functions:                                5
       Number of Cartesian basis functions:                                   25
       Number of spherical basis functions:                                   23
       Norm type:                                                              2

       Normalised Cartesian orbitals:

                        Set   Shell   Orbital            Exponent    Coefficient

                          1       1    1s                0.030000       0.000000
                                                         0.091371      -0.049397
                                                         0.293823      -0.051765
                                                         1.065127       0.831136
                                                         4.947701      -0.270539

                          1       2    2s                0.030000       0.000000
                                                         0.091371      -0.041080
                                                         0.293823       0.227881
                                                         1.065127       0.154529
                                                         4.947701       0.528758

                          1       3    3s                0.030000       0.000000
                                                         0.091371       0.076395
                                                         0.293823       0.077306
                                                         1.065127       0.164523
                                                         4.947701      -0.040048

                          1       4    4s                0.030000       0.043550
                                                         0.091371      -0.026138
                                                         0.293823      -0.246542
                                                         1.065127      -0.077212
                                                         4.947701       0.000000

                          1       5    2px               0.030000       0.000000
                                                         0.091371       0.008886
                                                         0.293823      -0.007684
                                                         1.065127       1.416453
                                                         4.947701       1.341091
                          1       5    2py               0.030000       0.000000
                                                         0.091371       0.008886
                                                         0.293823      -0.007684
                                                         1.065127       1.416453
                                                         4.947701       1.341091
                          1       5    2pz               0.030000       0.000000
                                                         0.091371       0.008886
                                                         0.293823      -0.007684
                                                         1.065127       1.416453
                                                         4.947701       1.341091

                          1       6    3px               0.030000       0.000000
                                                         0.091371      -0.013062
                                                         0.293823       0.330130
                                                         1.065127       0.106963
                                                         4.947701      -0.549928
                          1       6    3py               0.030000       0.000000
                                                         0.091371      -0.013062
                                                         0.293823       0.330130
                                                         1.065127       0.106963
                                                         4.947701      -0.549928
                          1       6    3pz               0.030000       0.000000
                                                         0.091371      -0.013062
                                                         0.293823       0.330130
                                                         1.065127       0.106963
                                                         4.947701      -0.549928

                          1       7    4px               0.030000       0.014060
                                                         0.091371       0.022273
                                                         0.293823      -0.026384
                                                         1.065127       0.024249
                                                         4.947701       0.000000
                          1       7    4py               0.030000       0.014060
                                                         0.091371       0.022273
                                                         0.293823      -0.026384
                                                         1.065127       0.024249
                                                         4.947701       0.000000
                          1       7    4pz               0.030000       0.014060
                                                         0.091371       0.022273
                                                         0.293823      -0.026384
                                                         1.065127       0.024249
                                                         4.947701       0.000000

                          1       8    3dx2              0.030000       0.000000
                                                         0.091371      -0.004737
                                                         0.293823       0.052231
                                                         1.065127       1.617163
                                                         4.947701      -1.124420
                          1       8    3dxy              0.030000       0.000000
                                                         0.091371      -0.008204
                                                         0.293823       0.090468
                                                         1.065127       2.801009
                                                         4.947701      -1.947552
                          1       8    3dxz              0.030000       0.000000
                                                         0.091371      -0.008204
                                                         0.293823       0.090468
                                                         1.065127       2.801009
                                                         4.947701      -1.947552
                          1       8    3dy2              0.030000       0.000000
                                                         0.091371      -0.004737
                                                         0.293823       0.052231
                                                         1.065127       1.617163
                                                         4.947701      -1.124420
                          1       8    3dyz              0.030000       0.000000
                                                         0.091371      -0.008204
                                                         0.293823       0.090468
                                                         1.065127       2.801009
                                                         4.947701      -1.947552
                          1       8    3dz2              0.030000       0.000000
                                                         0.091371      -0.004737
                                                         0.293823       0.052231
                                                         1.065127       1.617163
                                                         4.947701      -1.124420

                          1       9    4dx2              0.030000       0.002444
                                                         0.091371       0.004703
                                                         0.293823       0.069647
                                                         1.065127       0.196246
                                                         4.947701       0.000000
                          1       9    4dxy              0.030000       0.004233
                                                         0.091371       0.008146
                                                         0.293823       0.120632
                                                         1.065127       0.339908
                                                         4.947701       0.000000
                          1       9    4dxz              0.030000       0.004233
                                                         0.091371       0.008146
                                                         0.293823       0.120632
                                                         1.065127       0.339908
                                                         4.947701       0.000000
                          1       9    4dy2              0.030000       0.002444
                                                         0.091371       0.004703
                                                         0.293823       0.069647
                                                         1.065127       0.196246
                                                         4.947701       0.000000
                          1       9    4dyz              0.030000       0.004233
                                                         0.091371       0.008146
                                                         0.293823       0.120632
                                                         1.065127       0.339908
                                                         4.947701       0.000000
                          1       9    4dz2              0.030000       0.002444
                                                         0.091371       0.004703
                                                         0.293823       0.069647
                                                         1.065127       0.196246
                                                         4.947701       0.000000

     AE Potential information for                                            ALL

       Description:                                       All-electron potential
                                          Krack, Parrinello, PCCP 2, 2105 (2000)

       Gaussian exponent of the core charge distribution:              12.500000
       Electronic configuration (s p d ...):                           1   0   0


 MOLECULE KIND INFORMATION


 All atoms are their own molecule, skipping detailed information


 TOTAL NUMBERS AND MAXIMUM NUMBERS

  Total number of            - Atomic kinds:                                   4
                             - Atoms:                                         11
                             - Shell sets:                                    18
                             - Shells:                                       148
                             - Primitive Cartesian functions:                115
                             - Cartesian basis functions:                    597
                             - Spherical basis functions:                    484

  Maximum angular momentum of the orbital basis functions:                     4


 MODULE QUICKSTEP: ATOMIC COORDINATES IN ANGSTROM

   Atom Kind Element         X             Y             Z       Z(eff)     Mass
      1    1 N     7     15.182714     14.419176     16.098676   7.0000  14.0067
      2    2 C     6     15.006048     14.957869     13.828211   6.0000  12.0107
      3    2 C     6     15.502132     13.925687     14.829919   6.0000  12.0107
      4    3 O     8     16.094180     12.883865     14.630741   8.0000  15.9994
      5    4 H     1     14.199632     14.567905     13.193869   1.0000   1.0079
      6    4 H     1     15.855932     14.217156     16.836712   1.0000   1.0079
      7    1 N     7     14.792819     15.784453     16.007102   7.0000  14.0067
      8    2 C     6     14.494175     16.109693     14.680302   6.0000  12.0107
      9    3 O     8     13.905820     17.116135     14.339004   8.0000  15.9994
     10    4 H     1     15.823937     15.264073     13.163288   1.0000   1.0079
     11    4 H     1     14.107704     16.078957     16.701823   1.0000   1.0079



 SCF PARAMETERS         Density guess:                                    ATOMIC
                        --------------------------------------------------------
                        max_scf:                                             500
                        max_scf_history:                                       0
                        max_diis:                                              4
                        --------------------------------------------------------
                        eps_scf:                                        1.00E-06
                        eps_scf_history:                                0.00E+00
                        eps_diis:                                       1.00E-01
                        eps_eigval:                                     1.00E-05
                        --------------------------------------------------------
                        level_shift [a.u.]:                             0.000000
                        added MOs                                       458    0
                        --------------------------------------------------------
                        Mixing method:                            BROYDEN_MIXING
                                                charge density mixing in g-space
                        --------------------------------------------------------
                        No outer SCF

 PW_GRID| Information for grid number                                          1
 PW_GRID| Grid distributed over                                   192 processors
 PW_GRID| Real space group dimensions                                   192    1
 PW_GRID| the grid is blocked:                                                NO
 PW_GRID| Cutoff [a.u.]                                                    250.0
 PW_GRID| spherical cutoff:                                                   NO
 PW_GRID|   Bounds   1           -202     202                Points:         405
 PW_GRID|   Bounds   2           -202     202                Points:         405
 PW_GRID|   Bounds   3           -202     202                Points:         405
 PW_GRID| Volume element (a.u.^3)  0.2743E-02     Volume (a.u.^3)    182205.0337
 PW_GRID| Grid span                                                    FULLSPACE
 PW_GRID|   Distribution                         Average         Max         Min
 PW_GRID|   G-Vectors                           345990.2      346275      345870
 PW_GRID|   G-Rays                                 854.3         855         854
 PW_GRID|   Real Space Points                   345990.2      492075      328050

 PW_GRID| Information for grid number                                          2
 PW_GRID| Number of the reference grid                                         1
 PW_GRID| Grid distributed over                                   192 processors
 PW_GRID| Real space group dimensions                                   192    1
 PW_GRID| the grid is blocked:                                                NO
 PW_GRID| Cutoff [a.u.]                                                     83.3
 PW_GRID| spherical cutoff:                                                   NO
 PW_GRID|   Bounds   1           -120     119                Points:         240
 PW_GRID|   Bounds   2           -120     119                Points:         240
 PW_GRID|   Bounds   3           -120     119                Points:         240
 PW_GRID| Volume element (a.u.^3)  0.1318E-01     Volume (a.u.^3)    182205.0337
 PW_GRID| Grid span                                                    FULLSPACE
 PW_GRID|   Distribution                         Average         Max         Min
 PW_GRID|   G-Vectors                            72000.0       72240       71760
 PW_GRID|   G-Rays                                 300.0         301         299
 PW_GRID|   Real Space Points                    72000.0      115200       57600

 PW_GRID| Information for grid number                                          3
 PW_GRID| Number of the reference grid                                         1
 PW_GRID| Grid distributed over                                   192 processors
 PW_GRID| Real space group dimensions                                    12   16
 PW_GRID| the grid is blocked:                                                NO
 PW_GRID| Cutoff [a.u.]                                                     27.8
 PW_GRID| spherical cutoff:                                                   NO
 PW_GRID|   Bounds   1            -67      67                Points:         135
 PW_GRID|   Bounds   2            -67      67                Points:         135
 PW_GRID|   Bounds   3            -67      67                Points:         135
 PW_GRID| Volume element (a.u.^3)  0.7406E-01     Volume (a.u.^3)    182205.0337
 PW_GRID| Grid span                                                    FULLSPACE
 PW_GRID|   Distribution                         Average         Max         Min
 PW_GRID|   G-Vectors                            12814.5       12960       12690
 PW_GRID|   G-Rays                                  94.9          96          94
 PW_GRID|   Real Space Points                    12814.5       14580       11880

 PW_GRID| Information for grid number                                          4
 PW_GRID| Number of the reference grid                                         1
 PW_GRID| Grid distributed over                                   192 processors
 PW_GRID| Real space group dimensions                                    12   16
 PW_GRID| the grid is blocked:                                                NO
 PW_GRID| Cutoff [a.u.]                                                      9.3
 PW_GRID| spherical cutoff:                                                   NO
 PW_GRID|   Bounds   1            -40      39                Points:          80
 PW_GRID|   Bounds   2            -40      39                Points:          80
 PW_GRID|   Bounds   3            -40      39                Points:          80
 PW_GRID| Volume element (a.u.^3)  0.3559         Volume (a.u.^3)    182205.0337
 PW_GRID| Grid span                                                    FULLSPACE
 PW_GRID|   Distribution                         Average         Max         Min
 PW_GRID|   G-Vectors                             2666.7        2800        2560
 PW_GRID|   G-Rays                                  33.3          35          32
 PW_GRID|   Real Space Points                     2666.7        2800        2400

 POISSON| Solver                                                         WAVELET
 POISSON| Wavelet| Scaling function                                           40
 POISSON| Periodicity                                                       NONE

 RS_GRID| Information for grid number                                          1
 RS_GRID|   Bounds   1           -202     202                Points:         405
 RS_GRID|   Bounds   2           -202     202                Points:         405
 RS_GRID|   Bounds   3           -202     202                Points:         405
 RS_GRID| Real space distribution over                                  4 groups
 RS_GRID| Real space distribution along direction                              1
 RS_GRID| Border size                                                         37
 RS_GRID| Real space distribution over                                  6 groups
 RS_GRID| Real space distribution along direction                              2
 RS_GRID| Border size                                                         37
 RS_GRID| Real space distribution over                                  8 groups
 RS_GRID| Real space distribution along direction                              3
 RS_GRID| Border size                                                         37
 RS_GRID|   Distribution                         Average         Max         Min
 RS_GRID|   Planes                                 175.2         176         175
 RS_GRID|   Distribution                         Average         Max         Min
 RS_GRID|   Planes                                 141.5         142         141
 RS_GRID|   Distribution                         Average         Max         Min
 RS_GRID|   Planes                                 124.6         125         124

 RS_GRID| Information for grid number                                          2
 RS_GRID|   Bounds   1           -120     119                Points:         240
 RS_GRID|   Bounds   2           -120     119                Points:         240
 RS_GRID|   Bounds   3           -120     119                Points:         240
 RS_GRID| Real space distribution over                                  4 groups
 RS_GRID| Real space distribution along direction                              1
 RS_GRID| Border size                                                         41
 RS_GRID| Real space distribution over                                  6 groups
 RS_GRID| Real space distribution along direction                              2
 RS_GRID| Border size                                                         41
 RS_GRID| Real space distribution over                                  8 groups
 RS_GRID| Real space distribution along direction                              3
 RS_GRID| Border size                                                         41
 RS_GRID|   Distribution                         Average         Max         Min
 RS_GRID|   Planes                                 142.0         142         142
 RS_GRID|   Distribution                         Average         Max         Min
 RS_GRID|   Planes                                 122.0         122         122
 RS_GRID|   Distribution                         Average         Max         Min
 RS_GRID|   Planes                                 112.0         112         112

 RS_GRID| Information for grid number                                          3
 RS_GRID|   Bounds   1            -67      67                Points:         135
 RS_GRID|   Bounds   2            -67      67                Points:         135
 RS_GRID|   Bounds   3            -67      67                Points:         135
 RS_GRID| Real space fully replicated
 RS_GRID| Group size                                                           1

 RS_GRID| Information for grid number                                          4
 RS_GRID|   Bounds   1            -40      39                Points:          80
 RS_GRID|   Bounds   2            -40      39                Points:          80
 RS_GRID|   Bounds   3            -40      39                Points:          80
 RS_GRID| Real space fully replicated
 RS_GRID| Group size                                                           1

  HFX_INFO| Replica ID:                                                        1
  HFX_INFO| FRACTION:                                               0.2500000000
  HFX_INFO| Interaction Potential:                                       COULOMB
  HFX_INFO| EPS_SCHWARZ:                                                 1.0E-10
  HFX_INFO| EPS_SCHWARZ_FORCES                                           1.0E-08
  HFX_INFO| EPS_STORAGE_SCALING:                                         1.0E+00
  HFX_INFO| NBINS:                                                            64
  HFX_INFO| BLOCK_SIZE:                                                        1
  HFX_INFO| Number of periodic shells considered:                           NONE
  HFX_INFO| Number of periodic cells considered:                            NONE


 OVERLAP MATRIX CONDITION NUMBER
 1-Norm Condition Number (Estimate)
   CN : |A|*|A^-1|:  3.904E+001 *  6.192E+004   = 2.417E+006  Log(1-CN):  6.3833
 1-Norm and 2-Norm Condition Numbers using Diagonalization
   CN : |A|*|A^-1|:  3.904E+001 *  6.215E+004   = 2.427E+006  Log(1-CN):  6.3850
   CN : max/min ev:  1.325E+001 /  5.451E-005   = 2.430E+005  Log(2-CN):  5.3857

 Extrapolation method: initial_guess

 Atomic guess: The first density matrix is obtained in terms of atomic orbitals
               and electronic configurations assigned to each atomic kind

 Guess for atomic kind: N

 Electronic structure
    Total number of core electrons                                          0.00
    Total number of valence electrons                                       7.00
    Total number of electrons                                               7.00
    Multiplicity                                                   not specified
    S      2.00  2.00
    P      3.00


 *******************************************************************************
                  Iteration          Convergence                     Energy [au]
 *******************************************************************************
                          1        0.326076                     -53.972693897064
                          2        0.277784                     -53.975356210240
                          3        0.160682E-01                 -54.015017798370
                          4        0.471581E-03                 -54.015122641131
                          5        0.493838E-04                 -54.015122735628
                          6        0.172912E-06                 -54.015122736717

 Energy components [Hartree]           Total Energy ::          -54.015122736717
                                        Band Energy ::          -30.191862359396
                                     Kinetic Energy ::           53.695499289564
                                   Potential Energy ::         -107.710622026281
                                      Virial (-V/T) ::            2.005952518393
                                        Core Energy ::          -73.652199105609
                                          XC Energy ::           -6.133297426899
                                     Coulomb Energy ::           25.770373795791

 Orbital energies  State     L     Occupation   Energy[a.u.]          Energy[eV]

                       1     0          2.000     -14.018025         -381.449871
                       2     0          2.000      -0.677769          -18.443037

                       1     1          3.000      -0.266758           -7.258847


 Total Electron Density at R=0:                                       197.100878

 Guess for atomic kind: C

 Electronic structure
    Total number of core electrons                                          0.00
    Total number of valence electrons                                       6.00
    Total number of electrons                                               6.00
    Multiplicity                                                   not specified
    S      2.00  2.00
    P      2.00


 *******************************************************************************
                  Iteration          Convergence                     Energy [au]
 *******************************************************************************
                          1        0.408086E-01                 -37.383571338589
                          2        0.199264E-01                 -37.384203573320
                          3        0.259961E-02                 -37.384435836203
                          4        0.391371E-04                 -37.384439874383
                          5        0.433696E-05                 -37.384439875510
                          6        0.203636E-05                 -37.384439875519
                          7        0.125946E-05                 -37.384439875520
                          8        0.885025E-06                 -37.384439875521

 Energy components [Hartree]           Total Energy ::          -37.384439875521
                                        Band Energy ::          -20.876980269916
                                     Kinetic Energy ::           37.852147377771
                                   Potential Energy ::          -75.236587253292
                                      Virial (-V/T) ::            1.987643831733
                                        Core Energy ::          -50.615205923802
                                          XC Energy ::           -4.796518113706
                                     Coulomb Energy ::           18.027284161987

 Orbital energies  State     L     Occupation   Energy[a.u.]          Energy[eV]

                       1     0          2.000      -9.827795         -267.427905
                       2     0          2.000      -0.450543          -12.259887

                       1     1          2.000      -0.160152           -4.357971


 Total Electron Density at R=0:                                       119.599082

 Guess for atomic kind: O

 Electronic structure
    Total number of core electrons                                          0.00
    Total number of valence electrons                                       8.00
    Total number of electrons                                               8.00
    Multiplicity                                                   not specified
    S      2.00  2.00
    P      4.00


 *******************************************************************************
                  Iteration          Convergence                     Energy [au]
 *******************************************************************************
                          1        0.849670                     -74.335674168869
                          2        0.869389                     -74.324859694107
                          3        0.697432E-01                 -74.439224088863
                          4        0.175161E-02                 -74.439997666440
                          5        0.192648E-03                 -74.439998082258
                          6        0.198994E-05                 -74.439998087622
                          7        0.205802E-05                 -74.439998087622
                          8        0.520855E-08                 -74.439998087622

 Energy components [Hartree]           Total Energy ::          -74.439998087622
                                        Band Energy ::          -40.680979348956
                                     Kinetic Energy ::           74.005891336564
                                   Potential Energy ::         -148.445889424186
                                      Virial (-V/T) ::            2.005865840452
                                        Core Energy ::         -102.914102294567
                                          XC Energy ::           -7.750574740974
                                     Coulomb Energy ::           36.224678947918

 Orbital energies  State     L     Occupation   Energy[a.u.]          Energy[eV]

                       1     0          2.000     -18.778735         -510.995367
                       2     0          2.000      -0.871403          -23.712092

                       1     1          4.000      -0.345176           -9.392706


 Total Electron Density at R=0:                                       296.644588

 Guess for atomic kind: H

 Electronic structure
    Total number of core electrons                                          0.00
    Total number of valence electrons                                       1.00
    Total number of electrons                                               1.00
    Multiplicity                                                   not specified
    S      1.00


 *******************************************************************************
                  Iteration          Convergence                     Energy [au]
 *******************************************************************************
                          1        0.733196E-02                  -0.445117623880
                          2        0.859241E-03                  -0.445212006904
                          3        0.845006E-04                  -0.445214656295
                          4        0.112741E-06                  -0.445214675972

 Energy components [Hartree]           Total Energy ::           -0.445214675972
                                        Band Energy ::           -0.233330933424
                                     Kinetic Energy ::            0.424855784484
                                   Potential Energy ::           -0.870070460456
                                      Virial (-V/T) ::            2.047919534654
                                        Core Energy ::           -0.495467353870
                                          XC Energy ::           -0.231971319510
                                     Coulomb Energy ::            0.282223997408

 Orbital energies  State     L     Occupation   Energy[a.u.]          Energy[eV]

                       1     0          1.000      -0.233331           -6.349258


 Total Electron Density at R=0:                                         0.248077
 Re-scaling the density matrix to get the right number of electrons
                  # Electrons              Trace(P)               Scaling factor
                           52                52.000                        1.000

 Number of electrons:                                                         52
 Number of occupied orbitals:                                                 26
 Number of molecular orbitals:                                               484

 Number of orbital functions:                                                484
 Number of independent orbital functions:                                    484


 SCF WAVEFUNCTION OPTIMIZATION

  Step     Update method      Time    Convergence         Total energy    Change
  ------------------------------------------------------------------------------

  HFX_MEM_INFO| Est. max. program size before HFX [MiB]:                     834
  HFX_MEM_INFO| Number of cart. primitive ERI's calculated:        2060918342213
  HFX_MEM_INFO| Number of sph. ERI's calculated:                      8501115910
  HFX_MEM_INFO| Number of sph. ERI's stored in-core:                  8501115910
  HFX_MEM_INFO| Number of sph. ERI's stored on disk:                           0
  HFX_MEM_INFO| Number of sph. ERI's calculated on the fly:                    0
  HFX_MEM_INFO| Total memory consumption ERI's RAM [MiB]:                  31986
  HFX_MEM_INFO| Whereof max-vals [MiB]:                                        6
  HFX_MEM_INFO| Total compression factor ERI's RAM:                         2.03
  HFX_MEM_INFO| Total memory consumption ERI's disk [MiB]:                     0
  HFX_MEM_INFO| Total compression factor ERI's disk:                        0.00
  HFX_MEM_INFO| Size of density/Fock matrix [MiB]:                             0
  HFX_MEM_INFO| Size of buffers [MiB]:                                       279
  HFX_MEM_INFO| Est. max. program size after HFX  [MiB]:                    1850

     1 NoMix/Diag. 0.10E+00  237.7     1.10942022      -377.7669651884 -3.78E+02
     2 Broy./Diag. 0.10E+00    1.7     0.20314971      -374.8197347307  2.95E+00
     3 Broy./Diag. 0.10E+00    1.3     0.08775463      -376.1399258902 -1.32E+00
     4 Broy./Diag. 0.10E+00    1.4     0.12524650      -375.6799657259  4.60E-01
     5 Broy./Diag. 0.10E+00    1.3     0.07047534      -376.7477370547 -1.07E+00
     6 Broy./Diag. 0.10E+00    1.3     0.02266602      -376.4259312873  3.22E-01
     7 Broy./Diag. 0.10E+00    1.3     0.02228731      -376.4457662943 -1.98E-02
     8 Broy./Diag. 0.10E+00    1.3     0.01219282      -376.3370300720  1.09E-01
     9 Broy./Diag. 0.10E+00    1.3     0.00456534      -376.2364196745  1.01E-01
    10 Broy./Diag. 0.10E+00    1.2     0.01254087      -376.2314231777  5.00E-03
    11 Broy./Diag. 0.10E+00    1.3     0.00569124      -376.3209175223 -8.95E-02
    12 Broy./Diag. 0.10E+00    1.3     0.00521012      -376.3608881397 -4.00E-02
    13 Broy./Diag. 0.10E+00    1.3     0.00645840      -376.3298850603  3.10E-02
    14 Broy./Diag. 0.10E+00    1.3     0.00256160      -376.3390595961 -9.17E-03
    15 Broy./Diag. 0.10E+00    1.3     0.00091746      -376.3247231214  1.43E-02
    16 Broy./Diag. 0.10E+00    1.3     0.01228424      -376.3836601962 -5.89E-02
    17 Broy./Diag. 0.10E+00    1.3     0.00809768      -376.4228918083 -3.92E-02
    18 Broy./Diag. 0.10E+00    1.2     0.00264808      -376.3755664079  4.73E-02
    19 Broy./Diag. 0.10E+00    1.3     0.00152207      -376.3826746809 -7.11E-03
    20 Broy./Diag. 0.10E+00    1.3     0.00242503      -376.3878041503 -5.13E-03
    21 Broy./Diag. 0.10E+00    1.3     0.00151874      -376.3881139984 -3.10E-04
    22 Broy./Diag. 0.10E+00    1.3     0.00092476      -376.3865759372  1.54E-03
    23 Broy./Diag. 0.10E+00    1.3     0.00063762      -376.3881543125 -1.58E-03
    24 Broy./Diag. 0.10E+00    1.2     0.00098312      -376.3712375016  1.69E-02
    25 Broy./Diag. 0.10E+00    1.4     0.00083497      -376.3634128233  7.82E-03
    26 Broy./Diag. 0.10E+00    1.3     0.00037993      -376.3641055645 -6.93E-04
    27 Broy./Diag. 0.10E+00    1.3     0.00110358      -376.3563375220  7.77E-03
    28 Broy./Diag. 0.10E+00    1.3     0.00058706      -376.3584120051 -2.07E-03
    29 Broy./Diag. 0.10E+00    1.3     0.00050710      -376.3621916371 -3.78E-03
    30 Broy./Diag. 0.10E+00    1.3     0.00016576      -376.3594086781  2.78E-03
    31 Broy./Diag. 0.10E+00    1.3     0.00021537      -376.3600699341 -6.61E-04
    32 Broy./Diag. 0.10E+00    1.3     0.00010911      -376.3609559332 -8.86E-04
    33 Broy./Diag. 0.10E+00    1.3     0.00007787      -376.3604179685  5.38E-04
    34 Broy./Diag. 0.10E+00    1.2     0.00003379      -376.3602107625  2.07E-04
    35 Broy./Diag. 0.10E+00    1.3     0.00024337      -376.3611158747 -9.05E-04
    36 Broy./Diag. 0.10E+00    1.3     0.00069228      -376.3645148335 -3.40E-03
    37 Broy./Diag. 0.10E+00    1.3     0.00026232      -376.3663299378 -1.82E-03
    38 Broy./Diag. 0.10E+00    1.3     0.00012371      -376.3644720333  1.86E-03
    39 Broy./Diag. 0.10E+00    1.3     0.00011367      -376.3636883151  7.84E-04
    40 Broy./Diag. 0.10E+00    1.3     0.00012014      -376.3645114490 -8.23E-04
    41 Broy./Diag. 0.10E+00    1.3     0.00026083      -376.3657350104 -1.22E-03
    42 Broy./Diag. 0.10E+00    1.3     0.00014365      -376.3656226409  1.12E-04
    43 Broy./Diag. 0.10E+00    1.3     0.00009564      -376.3648916554  7.31E-04
    44 Broy./Diag. 0.10E+00    1.2     0.00003505      -376.3654441894 -5.53E-04
    45 Broy./Diag. 0.10E+00    1.3     0.00001292      -376.3653482999  9.59E-05
    46 Broy./Diag. 0.10E+00    1.3     0.00017771      -376.3643736100  9.75E-04
    47 Broy./Diag. 0.10E+00    1.3     0.00007100      -376.3638972890  4.76E-04
    48 Broy./Diag. 0.10E+00    1.3     0.00005309      -376.3645576708 -6.60E-04
    49 Broy./Diag. 0.10E+00    1.3     0.00012326      -376.3646459039 -8.82E-05
    50 Broy./Diag. 0.10E+00    1.3     0.00004607      -376.3643861074  2.60E-04
    51 Broy./Diag. 0.10E+00    1.4     0.00008475      -376.3643235275  6.26E-05
    52 Broy./Diag. 0.10E+00    1.3     0.00006581      -376.3641719617  1.52E-04
    53 Broy./Diag. 0.10E+00    1.3     0.00007960      -376.3642878074 -1.16E-04
    54 Broy./Diag. 0.10E+00    1.3     0.00002097      -376.3644317539 -1.44E-04
    55 Broy./Diag. 0.10E+00    1.3     0.00020596      -376.3648253626 -3.94E-04
    56 Broy./Diag. 0.10E+00    1.3     0.00009390      -376.3649839590 -1.59E-04
    57 Broy./Diag. 0.10E+00    1.2     0.00007022      -376.3646664357  3.18E-04
    58 Broy./Diag. 0.10E+00    1.3     0.00003018      -376.3651252490 -4.59E-04
    59 Broy./Diag. 0.10E+00    1.3     0.00002334      -376.3650206734  1.05E-04
    60 Broy./Diag. 0.10E+00    1.2     0.00001867      -376.3648716250  1.49E-04
    61 Broy./Diag. 0.10E+00    1.3     0.00003801      -376.3651610169 -2.89E-04
    62 Broy./Diag. 0.10E+00    1.3     0.00003139      -376.3650467888  1.14E-04
    63 Broy./Diag. 0.10E+00    1.3     0.00002621      -376.3648466371  2.00E-04
    64 Broy./Diag. 0.10E+00    1.2     0.00005330      -376.3650046069 -1.58E-04
    65 Broy./Diag. 0.10E+00    1.2     0.00009660      -376.3650386635 -3.41E-05
    66 Broy./Diag. 0.10E+00    1.3     0.00001899      -376.3650392446 -5.81E-07
    67 Broy./Diag. 0.10E+00    1.3     0.00004987      -376.3653180653 -2.79E-04
    68 Broy./Diag. 0.10E+00    1.2     0.00004156      -376.3653695095 -5.14E-05
    69 Broy./Diag. 0.10E+00    1.3     0.00003205      -376.3652106039  1.59E-04
    70 Broy./Diag. 0.10E+00    1.3     0.00004253      -376.3654820632 -2.71E-04
    71 Broy./Diag. 0.10E+00    1.3     0.00006884      -376.3660216760 -5.40E-04
    72 Broy./Diag. 0.10E+00    1.3     0.00003849      -376.3656195833  4.02E-04
    73 Broy./Diag. 0.10E+00    1.3     0.00004388      -376.3650294645  5.90E-04
    74 Broy./Diag. 0.10E+00    1.3     0.00008015      -376.3657390969 -7.10E-04
    75 Broy./Diag. 0.10E+00    1.4     0.00015051      -376.3659413218 -2.02E-04
    76 Broy./Diag. 0.10E+00    1.2     0.00008185      -376.3655089591  4.32E-04
    77 Broy./Diag. 0.10E+00    1.3     0.00007079      -376.3658123503 -3.03E-04
    78 Broy./Diag. 0.10E+00    1.3     0.00002157      -376.3657321395  8.02E-05
    79 Broy./Diag. 0.10E+00    1.3     0.00001672      -376.3658257727 -9.36E-05
    80 Broy./Diag. 0.10E+00    1.3     0.00003929      -376.3657167824  1.09E-04
    81 Broy./Diag. 0.10E+00    1.3     0.00002636      -376.3656565854  6.02E-05
    82 Broy./Diag. 0.10E+00    1.3     0.00002719      -376.3660038671 -3.47E-04
    83 Broy./Diag. 0.10E+00    1.3     0.00002844      -376.3660094175 -5.55E-06
    84 Broy./Diag. 0.10E+00    1.3     0.00007323      -376.3650325113  9.77E-04
    85 Broy./Diag. 0.10E+00    1.3     0.00009346      -376.3648213924  2.11E-04
    86 Broy./Diag. 0.10E+00    1.3     0.00013462      -376.3657936239 -9.72E-04
    87 Broy./Diag. 0.10E+00    1.3     0.00010261      -376.3656858424  1.08E-04
    88 Broy./Diag. 0.10E+00    1.3     0.00004873      -376.3653363957  3.49E-04
    89 Broy./Diag. 0.10E+00    1.3     0.00008680      -376.3657278049 -3.91E-04
    90 Broy./Diag. 0.10E+00    1.3     0.00002500      -376.3655281378  2.00E-04
    91 Broy./Diag. 0.10E+00    1.3     0.00001603      -376.3654202359  1.08E-04
    92 Broy./Diag. 0.10E+00    1.3     0.00008089      -376.3653670846  5.32E-05
    93 Broy./Diag. 0.10E+00    1.3     0.00009158      -376.3649619528  4.05E-04
    94 Broy./Diag. 0.10E+00    1.3     0.00015978      -376.3652929005 -3.31E-04
    95 Broy./Diag. 0.10E+00    1.3     0.00011255      -376.3656343748 -3.41E-04
    96 Broy./Diag. 0.10E+00    1.3     0.00006259      -376.3656278573  6.52E-06
    97 Broy./Diag. 0.10E+00    1.4     0.00013636      -376.3654311579  1.97E-04
    98 Broy./Diag. 0.10E+00    1.4     0.00008521      -376.3652841812  1.47E-04
    99 Broy./Diag. 0.10E+00    1.3     0.00006403      -376.3656673129 -3.83E-04
   100 Broy./Diag. 0.10E+00    1.3     0.00009059      -376.3651917113  4.76E-04
   101 Broy./Diag. 0.10E+00    1.3     0.00003288      -376.3652817053 -9.00E-05
   102 Broy./Diag. 0.10E+00    1.3     0.00006551      -376.3653200522 -3.83E-05
   103 Broy./Diag. 0.10E+00    1.2     0.00008779      -376.3647170802  6.03E-04
   104 Broy./Diag. 0.10E+00    1.3     0.00009675      -376.3642589564  4.58E-04
   105 Broy./Diag. 0.10E+00    1.3     0.00003468      -376.3641961404  6.28E-05
   106 Broy./Diag. 0.10E+00    1.3     0.00004584      -376.3639979341  1.98E-04
   107 Broy./Diag. 0.10E+00    1.3     0.00002847      -376.3636707031  3.27E-04
   108 Broy./Diag. 0.10E+00    1.2     0.00009212      -376.3632273758  4.43E-04
   109 Broy./Diag. 0.10E+00    1.3     0.00012056      -376.3631749825  5.24E-05
   110 Broy./Diag. 0.10E+00    1.3     0.00009628      -376.3633775035 -2.03E-04
   111 Broy./Diag. 0.10E+00    1.3     0.00002507      -376.3633868667 -9.36E-06
   112 Broy./Diag. 0.10E+00    1.3     0.00005830      -376.3632886399  9.82E-05
   113 Broy./Diag. 0.10E+00    1.3     0.00002446      -376.3629658489  3.23E-04
   114 Broy./Diag. 0.10E+00    1.3     0.00005054      -376.3628386534  1.27E-04
   115 Broy./Diag. 0.10E+00    1.3     0.00002307      -376.3630081737 -1.70E-04
   116 Broy./Diag. 0.10E+00    1.3     0.00005015      -376.3632857763 -2.78E-04
   117 Broy./Diag. 0.10E+00    1.3     0.00003396      -376.3632078781  7.79E-05
   118 Broy./Diag. 0.10E+00    1.3     0.00003419      -376.3630062921  2.02E-04
   119 Broy./Diag. 0.10E+00    1.3     0.00002691      -376.3629835889  2.27E-05
   120 Broy./Diag. 0.10E+00    1.3     0.00002905      -376.3630236614 -4.01E-05
   121 Broy./Diag. 0.10E+00    1.4     0.00000858      -376.3630161936  7.47E-06
   122 Broy./Diag. 0.10E+00    1.2     0.00001579      -376.3630438808 -2.77E-05
   123 Broy./Diag. 0.10E+00    1.3     0.00000362      -376.3630685191 -2.46E-05
   124 Broy./Diag. 0.10E+00    1.3     0.00000680      -376.3630987630 -3.02E-05
   125 Broy./Diag. 0.10E+00    1.3     0.00000291      -376.3630890686  9.69E-06
   126 Broy./Diag. 0.10E+00    1.3     0.00000179      -376.3630667811  2.23E-05
   127 Broy./Diag. 0.10E+00    1.3     0.00000103      -376.3630558788  1.09E-05
   128 Broy./Diag. 0.10E+00    1.3     0.00000106      -376.3630535679  2.31E-06
   129 Broy./Diag. 0.10E+00    1.3     0.00000243      -376.3630664462 -1.29E-05
   130 Broy./Diag. 0.10E+00    1.3     0.00000199      -376.3630650666  1.38E-06
   131 Broy./Diag. 0.10E+00    1.3     0.00000077      -376.3630602945  4.77E-06

  *** SCF run converged in   131 steps ***


  Electronic density on regular grids:        -37.1911518058       14.8088481942
  Core density on regular grids:               52.0000000000       -0.0000000000
  Hard and soft densities (Lebedev):         -710.8514875825     -696.0426425408
  Total Rho_soft + Rho1_hard - Rho1_soft      -51.9999968474
  Total charge density (r-space):               0.0000031526
  Total Rho_soft + Rho0_soft (g-space):         0.0000031919

  Overlap energy of the core charge distribution:               0.00000543419080
  Self energy of the core charge distribution:               -334.39952963473752
  Core Hamiltonian energy:                                    -47.50705235821640
  Hartree energy:                                             105.82937201334252
  Exchange-correlation energy:                                -13.73762304970089
  Hartree-Fock Exchange energy:                               -11.63916210018534

  GAPW| Exc from hard and soft atomic rho1:                   -22.94106029569430
  GAPW| local Eh = 1 center integrals:                        -51.96801030351386

  Total energy:                                              -376.36306029451504

 !-----------------------------------------------------------------------------!
                     Mulliken Population Analysis

 #  Atom  Element  Kind  Atomic population                           Net charge
       1     N        1          6.991601                              0.008399
       2     C        2          5.533905                              0.466095
       3     C        2          5.594622                              0.405378
       4     O        3          9.027448                             -1.027448
       5     H        4          0.859201                              0.140799
       6     H        4          0.760163                              0.239837
       7     N        1          6.991539                              0.008461
       8     C        2          5.594691                              0.405309
       9     O        3          9.027502                             -1.027502
      10     H        4          0.859240                              0.140760
      11     H        4          0.760087                              0.239913
 # Total charge                             52.000000                 -0.000000

 !-----------------------------------------------------------------------------!

 !-----------------------------------------------------------------------------!
                           Hirshfeld Charges

  #Atom  Element  Kind  Ref Charge     Population                    Net charge
      1       N      1       7.000          7.529                        -0.529
      2       C      2       6.000          6.848                        -0.848
      3       C      2       6.000          5.656                         0.344
      4       O      3       8.000          8.454                        -0.454
      5       H      4       1.000          0.495                         0.505
      6       H      4       1.000          0.437                         0.563
      7       N      1       7.000          7.529                        -0.529
      8       C      2       6.000          5.656                         0.344
      9       O      3       8.000          8.454                        -0.454
     10       H      4       1.000          0.495                         0.505
     11       H      4       1.000          0.437                         0.563

  Total Charge                                                            0.010
 !-----------------------------------------------------------------------------!
  
 -------------------------------------------------------------------------------
 -                                                                             -
 -                          BANDSTRUCTURE CALCULATION                          -
 -                                                                             -
 -------------------------------------------------------------------------------
  
 Number of occupied molecular orbitals (MOs) = Number of occupied bands       26
 Number of unoccupied (= virtual) MOs = Number of unoccupied bands           458
 Number of Gaussian basis functions for MOs                                  484
 K-point mesh for the density of states (DOS) and the self-energy      1   1   1
  
 -------------------------------------------------------------------------------
 -                                                                             -
 -                                GW CALCULATION                               -
 -                                                                             -
 -------------------------------------------------------------------------------
  
 Input: Number of time/freq. points                                           30
 Input: ω_max for fitting Σ(iω) (eV)                                        10.0
 Input: Filter threshold for sparse tensor operations                    1.0E-11
 Input: Apply Hedin shift                                                      F
  
 Number of auxiliary Gaussian basis functions for χ, ε, W                    641
 Cutoff radius for the truncated Coulomb operator in Σ^x:               2645.9 Å
 Cutoff radius for the truncated Coulomb operator in RI metric:            3.0 Å
 Regularization parameter of RI                                          1.0E-02
 Regularization parameter of minimax grids                               1.0E-06
 Lattice sum size for V(k):                                                    3
  
 K-point mesh 1 for χ, ε, W                                            1   1   1
 K-point mesh 2 for χ, ε, W (for k-point extrapolation of W)           1   1   1
 Approximate the k-point extrapolation                                         F
 Group size for tensor operations                                            192
 
 Computed 3-center integrals (µν|P), execution time                        0.8 s
 Percentage of non-zero (µν|P)                                         100.000 %
 Max. distance between µ,ν in non-zero (µν|P)                              4.8 A
 Required memory if storing all 3-center integrals (µν|P)                   1 GB
 
 Number of i and j atoms in M_λνP(τ), N_νλQ(τ):                               79
 Number of inner loop atoms for µ in M_λνP = sum_µ (µν|P) G_µλ                11
 
 SCF direct band gap (eV)                                                   6.40
 Max. SCF eigval diff. (eV)                                             10582.16
 E-Range for minimax grid                                                1653.76
 Number of Padé parameters for analytic continuation:                          5
 
 Computed χ(iτ,k=0) for time point            1 / 30,    Execution time    0.8 s
 Computed χ(iτ,k=0) for time point            2 / 30,    Execution time    0.8 s
 Computed χ(iτ,k=0) for time point            3 / 30,    Execution time    0.8 s
 Computed χ(iτ,k=0) for time point            4 / 30,    Execution time    0.7 s
 Computed χ(iτ,k=0) for time point            5 / 30,    Execution time    0.8 s
 Computed χ(iτ,k=0) for time point            6 / 30,    Execution time    0.8 s
 Computed χ(iτ,k=0) for time point            7 / 30,    Execution time    0.8 s
 Computed χ(iτ,k=0) for time point            8 / 30,    Execution time    0.7 s
 Computed χ(iτ,k=0) for time point            9 / 30,    Execution time    0.8 s
 Computed χ(iτ,k=0) for time point           10 / 30,    Execution time    0.7 s
 Computed χ(iτ,k=0) for time point           11 / 30,    Execution time    0.8 s
 Computed χ(iτ,k=0) for time point           12 / 30,    Execution time    0.8 s
 Computed χ(iτ,k=0) for time point           13 / 30,    Execution time    0.8 s
 Computed χ(iτ,k=0) for time point           14 / 30,    Execution time    0.8 s
 Computed χ(iτ,k=0) for time point           15 / 30,    Execution time    0.7 s
 Computed χ(iτ,k=0) for time point           16 / 30,    Execution time    0.7 s
 Computed χ(iτ,k=0) for time point           17 / 30,    Execution time    0.7 s
 Computed χ(iτ,k=0) for time point           18 / 30,    Execution time    0.8 s
 Computed χ(iτ,k=0) for time point           19 / 30,    Execution time    0.7 s
 Computed χ(iτ,k=0) for time point           20 / 30,    Execution time    0.8 s
 Computed χ(iτ,k=0) for time point           21 / 30,    Execution time    0.8 s
 Computed χ(iτ,k=0) for time point           22 / 30,    Execution time    0.8 s
 Computed χ(iτ,k=0) for time point           23 / 30,    Execution time    0.7 s
 Computed χ(iτ,k=0) for time point           24 / 30,    Execution time    0.8 s
 Computed χ(iτ,k=0) for time point           25 / 30,    Execution time    0.8 s
 Computed χ(iτ,k=0) for time point           26 / 30,    Execution time    0.8 s
 Computed χ(iτ,k=0) for time point           27 / 30,    Execution time    0.8 s
 Computed χ(iτ,k=0) for time point           28 / 30,    Execution time    0.7 s
 Computed χ(iτ,k=0) for time point           29 / 30,    Execution time    0.7 s
 Computed χ(iτ,k=0) for time point           30 / 30,    Execution time    0.7 s
 
 Computed W(iτ,k) for k-point batch           1 /  1,    Execution time    2.8 s
 
 Computed Σ^x(k=0),                                      Execution time    0.8 s
 
 Computed Σ^c(iτ,k=0) for time point          1 / 30,    Execution time    1.1 s
 Computed Σ^c(iτ,k=0) for time point          2 / 30,    Execution time    1.1 s
 Computed Σ^c(iτ,k=0) for time point          3 / 30,    Execution time    1.1 s
 Computed Σ^c(iτ,k=0) for time point          4 / 30,    Execution time    1.1 s
 Computed Σ^c(iτ,k=0) for time point          5 / 30,    Execution time    1.1 s
 Computed Σ^c(iτ,k=0) for time point          6 / 30,    Execution time    1.1 s
 Computed Σ^c(iτ,k=0) for time point          7 / 30,    Execution time    1.2 s
 Computed Σ^c(iτ,k=0) for time point          8 / 30,    Execution time    1.1 s
 Computed Σ^c(iτ,k=0) for time point          9 / 30,    Execution time    1.1 s
 Computed Σ^c(iτ,k=0) for time point         10 / 30,    Execution time    1.1 s
 Computed Σ^c(iτ,k=0) for time point         11 / 30,    Execution time    1.1 s
 Computed Σ^c(iτ,k=0) for time point         12 / 30,    Execution time    1.1 s
 Computed Σ^c(iτ,k=0) for time point         13 / 30,    Execution time    1.1 s
 Computed Σ^c(iτ,k=0) for time point         14 / 30,    Execution time    1.1 s
 Computed Σ^c(iτ,k=0) for time point         15 / 30,    Execution time    1.1 s
 Computed Σ^c(iτ,k=0) for time point         16 / 30,    Execution time    1.1 s
 Computed Σ^c(iτ,k=0) for time point         17 / 30,    Execution time    1.1 s
 Computed Σ^c(iτ,k=0) for time point         18 / 30,    Execution time    1.1 s
 Computed Σ^c(iτ,k=0) for time point         19 / 30,    Execution time    1.1 s
 Computed Σ^c(iτ,k=0) for time point         20 / 30,    Execution time    1.1 s
 Computed Σ^c(iτ,k=0) for time point         21 / 30,    Execution time    1.1 s
 Computed Σ^c(iτ,k=0) for time point         22 / 30,    Execution time    1.1 s
 Computed Σ^c(iτ,k=0) for time point         23 / 30,    Execution time    1.1 s
 Computed Σ^c(iτ,k=0) for time point         24 / 30,    Execution time    1.1 s
 Computed Σ^c(iτ,k=0) for time point         25 / 30,    Execution time    1.1 s
 Computed Σ^c(iτ,k=0) for time point         26 / 30,    Execution time    1.1 s
 Computed Σ^c(iτ,k=0) for time point         27 / 30,    Execution time    1.1 s
 Computed Σ^c(iτ,k=0) for time point         28 / 30,    Execution time    1.1 s
 Computed Σ^c(iτ,k=0) for time point         29 / 30,    Execution time    1.2 s
 Computed Σ^c(iτ,k=0) for time point         30 / 30,    Execution time    1.1 s
 
 Sparsity of Σ^c(iτ,k=0): Percentage of skipped atom pairs:                0.0 %

 
 SCF valence band maximum (eV):                                           -7.474
 SCF conduction band minimum (eV):                                        -1.076
 SCF indirect band gap (eV):                                               6.399
 SCF direct band gap (eV):                                                 6.399
 
 G0W0 valence band maximum (eV):                                          -9.412
 G0W0 conduction band minimum (eV):                                        0.548
 G0W0 indirect band gap (eV):                                              9.961
 G0W0 direct band gap (eV):                                                9.961
 
 Hartree-Fock with SCF orbitals valence band maximum (eV):               -10.411
 Hartree-Fock with SCF orbitals conduction band minimum (eV)               1.394
 Hartree-Fock with SCF orbitals indirect band gap (eV):                   11.805
 Hartree-Fock with SCF orbitals direct band gap (eV):                     11.805

 ENERGY| Total FORCE_EVAL ( QS ) energy [hartree]           -376.363060294515037

 -------------------------------------------------------------------------------
 -                                                                             -
 -                                DBCSR STATISTICS                             -
 -                                                                             -
 -------------------------------------------------------------------------------
 COUNTER                                    TOTAL       BLAS       SMM       ACC
 flops    23 x    23 x     4              5543920     100.0%      0.0%      0.0%     
 flops    23 x    56 x     4             18897536     100.0%      0.0%      0.0%     
 flops    56 x    23 x     4             18897536     100.0%      0.0%      0.0%     
 flops    56 x    56 x     4             92022784     100.0%      0.0%      0.0%     
 flops    23 x    23 x    32            665270400     100.0%      0.0%      0.0%     
 flops    23 x    56 x    32           2267704320     100.0%      0.0%      0.0%     
 flops    56 x    23 x    32           2267704320     100.0%      0.0%      0.0%     
 flops    56 x    56 x    32          11042734080     100.0%      0.0%      0.0%     
 flops inhomo. stacks                           0       0.0%      0.0%      0.0%
 flops total                        16.378775E+09     100.0%      0.0%      0.0%
 flops max/rank                    958.668480E+06     100.0%      0.0%      0.0%
 matmuls inhomo. stacks                         0       0.0%      0.0%      0.0%
 matmuls total                             138336     100.0%      0.0%      0.0%
 number of processed stacks                134144     100.0%      0.0%      0.0%
 average stack size                                     1.0       0.0       0.0
 marketing flops                     1.595754E+09
 -------------------------------------------------------------------------------
 # multiplications                            131
 max memory usage/rank              20.097171E+09
 # max total images/rank                        3
 # max 3D layers                                1
 # MPI messages exchanged                 1106688
 MPI messages size (bytes):
  total size                         7.365009E+09
  min size                           0.000000E+00
  max size                          34.560000E+03
  average size                       6.655000E+03
 MPI breakdown and total messages size (bytes):
             size <=      128              656048                        0
       128 < size <=     8192              173575                917041920
      8192 < size <=    32768              231870               4886027520
     32768 < size <=   131072               45195               1561939200
    131072 < size <=  4194304                   0                        0
   4194304 < size <= 16777216                   0                        0
  16777216 < size                               0                        0
 -------------------------------------------------------------------------------

 *** WARNING in dbcsr_mm.F:301 :: Using a non-square number of MPI ranks ***
 *** might lead to poor performance. Used ranks: 192 Suggested: 196 400  ***

 -------------------------------------------------------------------------------
 -                                                                             -
 -                      DBCSR MESSAGE PASSING PERFORMANCE                      -
 -                                                                             -
 -------------------------------------------------------------------------------
 ROUTINE             CALLS      AVE VOLUME [Bytes]
 MP_Bcast                9                     12.
 MP_Allreduce          822                      9.
 MP_Alltoall          7090                 107090.
 MP_ISend            12314                   7141.
 MP_IRecv            12576                   6395.
 -------------------------------------------------------------------------------

 -------------------------------------------------------------------------------
 -                                                                             -
 -                                DBM STATISTICS                               -
 -                                                                             -
 -------------------------------------------------------------------------------
    M  x    N  x    K                                          COUNT     PERCENT
    ?  x    ?  x    ?                                          14912      46.81%
 >999  x   ??  x   ??                                           7986      25.07%
   ??  x   ??  x >999                                           6492      20.38%
   ??  x >999  x   ??                                           1364       4.28%
   ??  x  ???  x   ??                                            682       2.14%
   ??  x   ??  x  ???                                            420       1.32%
 -------------------------------------------------------------------------------

 -------------------------------------------------------------------------------
 -                                                                             -
 -                                GRID STATISTICS                              -
 -                                                                             -
 -------------------------------------------------------------------------------
 LP    KERNEL             BACKEND                              COUNT     PERCENT
 8     collocate ortho    CPU                                   9636      31.44%
 8     integrate ortho    CPU                                   9636      31.44%
 6     collocate ortho    CPU                                   3960      12.92%
 6     integrate ortho    CPU                                   3960      12.92%
 2     collocate general  CPU                                   1452       4.74%
 2     integrate general  CPU                                   1452       4.74%
 4     collocate ortho    CPU                                    264       0.86%
 4     integrate ortho    CPU                                    264       0.86%
 0     collocate general  CPU                                     11       0.04%
 0     integrate general  CPU                                     11       0.04%
 -------------------------------------------------------------------------------

 -------------------------------------------------------------------------------
 -                                                                             -
 -                          OFFLOAD MEMPOOL STATISTICS                         -
 -                                                                             -
 -------------------------------------------------------------------------------
 Memory consumption                Number of allocations  Used [MiB]  Size [MiB]
 Host                                                111          70         208
 -------------------------------------------------------------------------------

 MEMORY| Estimated peak process memory [MiB]                                2078

 -------------------------------------------------------------------------------
 ----                             MULTIGRID INFO                            ----
 -------------------------------------------------------------------------------
 count for grid        1:       81761725          cutoff [a.u.]          250.00
 count for grid        2:       16252888          cutoff [a.u.]           83.33
 count for grid        3:       11532614          cutoff [a.u.]           27.78
 count for grid        4:        5827776          cutoff [a.u.]            9.26
 total gridlevel count  :      115375003

 -------------------------------------------------------------------------------
 -                                                                             -
 -                         MESSAGE PASSING PERFORMANCE                         -
 -                                                                             -
 -------------------------------------------------------------------------------

 ROUTINE             CALLS      AVE VOLUME [Bytes]
 MP_Group             3197
 MP_Bcast             9918                 159257.
 MP_Allreduce        33051                  43539.
 MP_Sync              4243
 MP_Alltoall          6015                9313746.
 MP_SendRecv         50424                  69520.
 MP_ISendRecv       101230                  64770.
 MP_Wait            151808
 MP_comm_split        1622
 MP_ISend            52159                 368889.
 MP_IRecv            52535                 366795.
 -------------------------------------------------------------------------------


 -------------------------------------------------------------------------------
 -                                                                             -
 -                           R E F E R E N C E S                               -
 -                                                                             -
 -------------------------------------------------------------------------------
 
 CP2K version 2025.2 (Development Version), the CP2K developers group (2025).
 CP2K is freely available from https://www.cp2k.org/ .
 
 M. Graml, K. Zollner, D. Hernangómez-Pérez, P. E. Faria Junior, J. Wilhelm.
 J. Chem. Theory Comput. 20, 2202-2208 (2024).
 Low-scaling GW algorithm applied to twisted transition-metal dichalcogenide 
 heterobilayers.
 https://doi.org/10.1021/acs.jctc.3c01230

 T. D. Kuehne, M. Iannuzzi, M. Del Ben, V. V. Rybkin, P. Seewald, F. Stein, T. 
 Laino, R. Z. Khaliullin, O. Schuett, F. Schiffmann, D. Golze, J. Wilhelm, S. 
 Chulkov, M. H. Bani-Hashemian, V. Weber, U. Borstnik, M. Taillefumier, A. S. 
 Jakobovits, A. Lazzaro, H. Pabst, T. Mueller, R. Schade, M. Guidon, S. 
 Andermatt, N. Holmberg, G. K. Schenter, A. Hehn, A. Bussy, F. Belleflamme, G. 
 Tabacchi, A. Gloess, M. Lass, I. Bethune, C. J. Mundy, C. Plessl, M. Watkins, 
 J. VandeVondele, M. Krack, J. Hutter.
 J. Chem. Phys. 152, 194103 (2020).
 CP2K: An electronic structure and molecular dynamics software package - 
 Quickstep: Efficient and accurate electronic structure calculations.
 https://doi.org/10.1063/5.0007045

 O. Schuett, P. Messmer, J. Hutter, J. VandeVondele.
 Electronic Structure Calculations on Graphics Processing Units, 173-190 (2016).
 GPU-Accelerated Sparse Matrix-Matrix Multiplication for Linear Scaling Density 
 Functional Theory.
 https://doi.org/10.1002/9781118670712.ch8

 A. Heinecke, G. Henry, M. Hutchinson, H. Pabst.
 Proceedings of Intl. Supercomputing Conference, 981-991 (2016).
 LIBXSMM: Accelerating Small Matrix Multiplications by Runtime Code Generation.
 https://doi.org/10.1109/SC.2016.83

 J. Hutter, M. Iannuzzi, F. Schiffmann, J. VandeVondele.
 WIREs Comput Mol Sci. 4, 15-25 (2014).
 CP2K: atomistic simulations of condensed matter systems.
 https://doi.org/10.1002/wcms.1159

 U. Borstnik, J. VandeVondele, V. Weber, J. Hutter.
 Parallel Comput. 40, 47-58 (2014).
 Sparse matrix multiplication: The distributed block-compressed sparse row 
 library.
 https://doi.org/10.1016/j.parco.2014.03.012

 A. Marek, V. Blum, R. Johanni, V. Havu, B. Lang, T. Auckenthaler, A. Heinecke, 
 H. Bungartz, H. Lederer.
 J. Phys. Condens. Matter 26, 213201 (2014).
 The ELPA library: scalable parallel eigenvalue solutions for electronic 
 structure theory and computational science.
 https://doi.org/10.1088/0953-8984/26/21/213201

 M. Guidon, J. Hutter, J. VandeVondele.
 J. Chem. Theory Comput. 5, 3010-3021 (2009).
 Robust Periodic Hartree-Fock Exchange for Large-Scale Simulations Using 
 Gaussian Basis Sets.
 https://doi.org/10.1021/ct900494g

 M. Guidon, F. Schiffmann, J. Hutter, J. VandeVondele.
 J. Chem. Phys. 128, 214104 (2008).
 Ab initio molecular dynamics using hybrid density functionals.
 https://doi.org/10.1063/1.2931945

 L. Genovese, T. Deutsch, S. Goedecker.
 J. Chem. Phys. 127, 054704 (2007).
 Efficient and accurate three-dimensional Poisson solver for surface problems.
 https://doi.org/10.1063/1.2754685

 J. VandeVondele, J. Hutter.
 J. Chem. Phys. 127, 114105 (2007).
 Gaussian basis sets for accurate calculations on molecular systems in gas and 
 condensed phases.
 https://doi.org/10.1063/1.2770708

 L. Genovese, T. Deutsch, A. Neelov, S. Goedecker, G. Beylkin.
 J. Chem. Phys. 125, 074105 (2006).
 Efficient solution of Poisson's equation with free boundary conditions.
 https://doi.org/10.1063/1.2335442

 M. Frigo, S. G. Johnson.
 Proc. IEEE 93, 216-231 (2005).
 The design and implementation of FFTW3.
 https://doi.org/10.1109/JPROC.2004.840301

 M. Krack, M. Parrinello.
 Phys. Chem. Chem. Phys. 2, 2105-2112 (2000).
 All-electron ab-initio molecular dynamics.
 https://doi.org/10.1039/b001167n

 G. Lippert, J. Hutter, M. Parrinello.
 Theor. Chem. Acc. 103, 124-140 (1999).
 The Gaussian and augmented-plane-wave density functional method for ab initio 
 molecular dynamics simulations.
 https://doi.org/10.1007/s002140050523

 J. P. Perdew, K. Burke, M. Ernzerhof.
 Phys. Rev. Lett. 77, 3865-3868 (1996).
 Generalized gradient approximation made simple.
 https://doi.org/10.1103/PhysRevLett.77.3865


 -------------------------------------------------------------------------------
 -                                                                             -
 -                                T I M I N G                                  -
 -                                                                             -
 -------------------------------------------------------------------------------
 SUBROUTINE                       CALLS  ASD         SELF TIME        TOTAL TIME
                                MAXIMUM       AVERAGE  MAXIMUM  AVERAGE  MAXIMUM
 CP2K                                 1  1.0    0.010    0.018  470.492  470.531
 qs_energies                          1  2.0    0.000    0.000  470.152  470.191
 scf_env_do_scf                       1  3.0    0.000    0.000  404.581  404.615
 scf_env_do_scf_inner_loop          131  4.0    0.003    0.006  404.581  404.615
 qs_ks_build_kohn_sham_matrix       132  7.0    0.018    0.022  371.997  372.116
 qs_ks_update_qs_env                131  5.0    0.001    0.002  371.220  371.338
 rebuild_ks_matrix                  131  6.0    0.000    0.000  371.209  371.327
 hfx_ks_matrix                      132  8.0    0.002    0.003  252.468  252.496
 integrate_four_center              132  9.0    7.559   10.306  252.462  252.492
 integrate_four_center_main         132 10.0    4.566   58.812  147.771  193.080
 integrate_four_center_bin        39720 11.0  143.205  191.592  143.205  191.592
 mp_sync                           4243 12.0   74.321  104.111   74.321  104.111
 qs_energies_properties               1  3.0    0.000    0.000   62.613   62.618
 post_scf_bandstructure               1  4.0    0.000    0.000   62.613   62.618
 gw                                   1  5.0    0.000    0.000   62.403   62.408
 gw_calc_large_cell_Gamma             1  6.0    0.000    0.000   60.437   60.445
 fft_wrap_pw1pw2                   2763 10.0    0.028    0.037   45.751   47.131
 calc_screening_functions             1 10.0   44.352   45.216   44.796   45.660
 fft_wrap_pw1pw2_250               1971 11.1    0.761    0.929   43.303   44.814
 fft3d_ps                          2763 12.0    5.158    7.437   42.988   44.384
 pw_poisson_solve                   132  8.0    0.212    0.361   41.802   41.840
 mp_alltoall_z22v                  2763 14.0   35.914   37.715   35.914   37.715
 compute_3c_integrals               152  8.6    0.003    0.003   35.180   35.184
 build_3c_integrals                 156  9.6   13.291   30.350   15.449   35.020
 get_Sigma_c                          1  7.0    0.001    0.001   33.089   33.092
 prepare_gapw_den                   132  8.0    0.002    0.003   24.992   25.066
 qs_rho_update_rho_low              132  5.0    0.001    0.002   23.818   23.822
 get_mat_chi_Gamma_tau                1  7.0    0.000    0.001   22.954   22.961
 calculate_rho_elec                 132  6.0    0.089    0.134   22.494   22.497
 qs_vxc_create                      132  8.0    0.002    0.003   21.499   21.752
 xc_vxc_pw_create                   131  9.0    0.136    0.195   21.497   21.750
 contract_to_Sigma                   61  8.0    0.001    0.001   21.277   21.278
 dbt_total                          699  9.0    0.003    0.004   20.565   20.567
 x_to_yz                           1182 12.9    0.606    0.922   19.177   19.549
 yz_to_x                           1053 13.2    0.402    0.482   17.658   19.106
 dbt_contract                       243  9.9    0.008    0.010   19.048   19.050
 dbt_tas_multiply                   486 12.4    0.001    0.001   18.725   18.727
 dbt_tas_total                      486 13.4    0.047    0.061   18.714   18.716
 calculate_rho_atom                 528  9.0    1.494   17.980    1.494   17.980
 xc_pw_derive                       786 11.0    0.004    0.005   17.117   17.363
 mp_alltoall_d11v                  3738 10.3   16.121   17.321   16.121   17.321
 mp_sum_dv                        15036  8.7   16.716   17.116   16.716   17.116
 ps_wavelet_solve                   132  9.0    3.665    5.014   16.679   16.883
 density_rs2pw                      132  7.0    0.004    0.006   13.996   15.217
 sum_up_and_integrate               132  8.0    0.002    0.003   12.050   12.577
 integrate_v_rspace                 132  9.0    0.003    0.005   11.990   12.535
 mp_waitany                       43932 11.5   10.193   12.038   10.193   12.038
 potential_pw2rs                    132 10.0    0.010    0.012   11.700   11.754
 mp_sum_d                          9830  7.1   10.709   11.604   10.709   11.604
 compute_3c_and_contract_W           31  8.0    0.000    0.000   11.582   11.584
 xc_pw_divergence                   131 10.0    0.002    0.002   11.274   11.489
 mp_alltoall_d54                    132 10.0    7.857   11.018    7.857   11.018
 transfer_pw2rs                     661 10.6    0.005    0.007   10.088   10.612
 xc_rho_set_and_dset_create         131 10.0    0.144    0.185    9.743   10.306
 transfer_rs2pw                     661  8.4    0.012    0.018    8.523    9.694
 abc_contract_xsmm                57834 10.6    1.889    8.988    1.889    8.988
 grid_collocate_task_list           132  7.0    8.181    8.904    8.181    8.904
 calculate_vxc_atom                 132  8.0    0.044    0.379    7.910    7.911
 dbt_tas_dbm                        486 14.4    0.001    0.001    7.882    7.884
 gaVxcgb_GC                         262  9.0    0.140    7.433    0.140    7.433
 transfer_pw2rs_250                 265 11.0    1.235    1.683    5.308    7.053
 mp_alltoall_d45                    133 10.0    6.500    7.019    6.500    7.019
 dbm_multiply                       486 16.4    5.442    6.875    5.442    6.875
 gspace_mixing                      130  5.0    0.088    0.132    6.474    6.476
 put_rho0_on_grid                   132  9.0    0.093    0.137    6.310    6.383
 transfer_rs2pw_250                 265 10.0    1.491    1.710    5.056    6.204
 integrate_vhg0_rspace              132  8.0    0.434    0.533    5.870    6.163
 mp_waitall_1                    124431 12.0    3.038    4.959    3.038    4.959
 qs_scf_new_mos                     131  5.0    0.001    0.001    4.612    4.638
 mp_sum_dm                         4486  7.6    3.844    4.200    3.844    4.200
 transfer_pw2rs_90                  132 12.0    0.296    0.399    3.442    4.088
 eigensolver_symm                   131  6.0    0.010    0.012    4.069    4.080
 cp_fm_diag_elpa                    137  7.1    0.000    0.001    3.816    3.830
 G_times_3c                          60  8.0    0.000    0.003    3.801    3.804
 cp_fm_diag_elpa_base               137  8.0    3.652    3.718    3.694    3.728
 dbt_tas_mm_2                       182 15.2    0.000    0.001    3.673    3.673
 broyden_mixing                     130  6.0    3.297    3.409    3.418    3.508
 dbm_redistribute                   729 13.6    2.211    3.120    2.211    3.120
 get_W_MIC                            1  7.0    0.000    0.000    3.096    3.096
 compute_W_MIC                        1  8.0    0.000    0.000    3.096    3.096
 mp_sum_l                          3364 13.3    1.821    3.052    1.821    3.052
 convert_to_new_pgrid              1458 14.4    1.032    1.809    2.375    2.851
 compute_fm_W_MIC_freq_j             30  9.0    0.000    0.000    2.788    2.789
 dbt_tas_create_split              1618 15.2    0.003    0.004    2.571    2.730
 dbt_tas_create_split_rows_or_c    1618 16.2    0.004    0.005    2.567    2.727
 transfer_rs2pw_90                  132  9.0    0.330    0.420    2.161    2.352
 cp2k_distribution_to_z_slices      132  9.0    0.251    0.299    2.076    2.270
 cp_cfm_heevd                        32 10.8    0.000    0.000    2.156    2.175
 cp_cfm_heevd_base                   32 11.8    2.156    2.175    2.156    2.175
 mp_isend_dm3                      5820 11.5    0.248    2.147    0.248    2.147
 cp_cfm_power                        30 10.0    0.000    0.000    2.114    2.128
 dbt_tas_mm_3N                       62 15.5    0.000    0.000    1.634    2.084
 create_and_init_bs_env_for_gw        1  6.0    0.000    0.000    1.966    1.985
 dbt_tas_estimate_result_nze        243 12.9    0.154    0.290    1.943    1.944
 dbt_tas_distribution_new          1774 14.6    0.707    0.806    1.821    1.893
 init_scf_run                         1  3.0    0.000    0.000    1.862    1.862
 fft_wrap_pw1pw2_90                 264 10.5    0.027    0.040    1.592    1.828
 integrate_four_center_load         132 10.0    0.000    0.000    0.876    1.807
 hfx_load_balance                     1 11.0    0.000    0.000    0.876    1.807
 hfx_load_balance_range               1 12.0    0.000    0.000    0.864    1.795
 scf_env_initial_rho_setup            1  4.0    0.000    0.000    1.606    1.625
 reshape_mm_compatible              486 14.4    0.006    0.007    1.549    1.607
 change_split                       729 14.9    0.002    0.003    1.520    1.578
 reshape_mm_small                   486 14.4    0.025    0.026    1.507    1.565
 pw_poisson_rebuild                 132  9.0    0.000    0.000    1.498    1.533
 ps_wavelet_create                    1 10.0    0.000    0.000    1.498    1.533
 RS_z_slice_distribution              1 11.0    0.103    0.113    1.498    1.533
 xc_functional_eval                 655 10.9    0.001    0.002    0.803    1.403
 pbe_lda_eval                       655 11.9    0.802    1.402    0.802    1.402
 Vh_1c_gg_integrals                 132  8.0    0.031    1.331    1.342    1.345
 transfer_rs2pw_30                  132  9.0    0.513    0.566    1.088    1.339
 calculate_rho_atom_coeff           132  6.0    0.151    0.293    1.323    1.325
 mp_bcast_i                        2211 13.1    1.261    1.265    1.261    1.265
 transfer_pw2rs_30                  132 12.0    0.287    0.371    1.070    1.259
 rs_grid_zero                       662 11.2    0.964    1.243    0.964    1.243
 dbt_copy                           456 10.1    0.005    0.007    0.939    1.216
 integrate_four_center_getP         132 10.0    0.024    0.033    0.854    1.202
 parallel_gemm_fm_cosma             446  8.0    1.120    1.179    1.120    1.179
 dbt_tas_reshape                    638 14.5    0.007    0.009    0.909    1.096
 calc_pair_dist_radii                 1 10.0    0.719    0.774    1.039    1.094
 qs_energies_init_hamiltonians        1  3.0    0.000    0.000    1.050    1.050
 update_ks_atom                     132  8.0    0.093    0.260    0.927    1.044
 build_core_hamiltonian_matrix        1  4.0    0.000    0.000    1.032    1.032
 overlap_condnum                      1  5.0    0.000    0.000    1.026    1.032
 dbt_tas_mm_3T                      122 15.5    0.000    0.000    0.666    1.006
 dbt_tas_mm_1N                      120 15.5    0.000    0.000    0.657    0.997
 mp_sendrecv_dv                   50424 10.0    0.692    0.974    0.692    0.974
 mp_bcast_dm                       2905  9.0    0.953    0.973    0.953    0.973
 pw_copy                           1975 10.6    0.832    0.960    0.832    0.960
 mp_waitall_2                      2493 15.8    0.683    0.944    0.683    0.944
 pw_derive                         1182 11.3    0.844    0.943    0.844    0.943
 parallel_gemm_cfm                  283 10.4    0.000    0.000    0.860    0.908
 parallel_gemm_cfm_cosma            283 11.4    0.860    0.908    0.860    0.908
 fm_to_local_tensor                 152  8.0    0.002    0.002    0.896    0.902
 dbt_tas_copy                       486 13.8    0.330    0.515    0.631    0.890
 dbm_reserve_blocks                2920 15.9    0.579    0.859    0.579    0.859
 dbt_tas_reserve_blocks_index      2434 15.0    0.002    0.003    0.576    0.856
 get_Sigma_x                          1  7.0    0.000    0.000    0.837    0.837
 compute_Sigma_x                      1  8.0    0.000    0.000    0.837    0.837
 pw_gather_p                       1317 11.8    0.696    0.820    0.696    0.820
 powell_optimize                 733066 11.0    0.763    0.811    0.763    0.811
 calculate_rho0_atom                528  9.0    0.775    0.803    0.775    0.803
 check_sparsity_3c                    1  7.0    0.000    0.000    0.792    0.792
 compute_V_xc                         1  7.0    0.000    0.000    0.791    0.791
 dbt_reshape                        274 10.9    0.297    0.451    0.619    0.782
 grid_integrate_task_list           132 10.0    0.105    0.777    0.105    0.777
 copy_dbcsr_to_fm                   325  8.0    0.004    0.004    0.722    0.770
 mp_comm_dup                       1379 17.6    0.592    0.758    0.593    0.758
 mp_alltoall_z11v                   528 13.5    0.636    0.724    0.636    0.724
 dbt_tas_communicate_buffer        1124 16.5    0.008    0.015    0.507    0.710
 arnoldi_conjugate_gradient           5  6.0    0.009    0.012    0.709    0.709
 pw_scatter_p                      1446 12.1    0.604    0.679    0.604    0.679
 dbt_tas_replicate                  486 14.4    0.032    0.049    0.541    0.677
 rs_gather_matrices                 132 10.0    0.002    0.026    0.181    0.673
 fft_wrap_pw1pw2_30                 264 10.5    0.004    0.005    0.538    0.652
 mp_alltoall_i                     1917 14.5    0.583    0.623    0.583    0.623
 compute_cfm_W_ikp_freq_j            30 10.0    0.000    0.001    0.596    0.605
 pw_poisson_set                     133  9.0    0.002    0.003    0.561    0.599
 pw_integral_ab_c1d_c1d_gs          132  9.0    0.170    0.193    0.410    0.572
 mp_comm_split_direct              1620 17.2    0.566    0.570    0.566    0.570
 mp_max_i                          1080  6.8    0.410    0.532    0.410    0.532
 pw_copy_to_array                  1317 11.8    0.415    0.526    0.415    0.526
 dbt_create_matrix                  152  9.0    0.001    0.001    0.512    0.519
 dbcsr_complete_redistribute        739  9.2    0.016    0.021    0.482    0.507
 mp_alltoall_i22                   1070 10.1    0.448    0.494    0.448    0.494
 dbt_distribution_new_expert        316 10.5    0.002    0.002    0.482    0.482
 dbcsr_sym_matrix_vector_mult      4855  7.0    0.022    0.024    0.398    0.475
 dbt_tas_reserve_blocks_templat     972 14.4    0.002    0.006    0.304    0.475
 compute_QP_energies                  1  7.0    0.000    0.000    0.461    0.463
 mp_irecv_dm3                      5820 11.5    0.026    0.459    0.026    0.459
 mp_cart_create                    3528 14.3    0.370    0.432    0.372    0.433
 mp_isend_dv                      54549 12.0    0.237    0.425    0.237    0.425
 write_matrix                        91  8.0    0.000    0.000    0.354    0.419
 xz_to_yz                           264 11.0    0.008    0.035    0.383    0.407
 integrate_four_center_dist_KS      132 10.0    0.026    0.035    0.400    0.402
 G_occ_vir                          121  8.0    0.001    0.001    0.370    0.392
 dbcsr_desymmetrize_deep            331  9.0    0.004    0.006    0.353    0.386
 dbt_tas_replicate_communicate_     304 15.5    0.001    0.003    0.244    0.384
 dbt_communicate_buffer             274 11.9    0.002    0.003    0.219    0.369
 pw_axpy                           1315  9.3    0.308    0.369    0.308    0.369
 pw_copy_from_array                1446 12.1    0.226    0.367    0.226    0.367
 setup_time_and_frequency_minim       1  7.0    0.000    0.000    0.342    0.362
 yz_to_xz                           264 14.0    0.012    0.018    0.274    0.359
 to_ikp_and_mo                       62  8.0    0.001    0.002    0.355    0.355
 dbt_tas_reshape_buffer_obtain      638 15.5    0.178    0.262    0.253    0.349
 fm_write                           121  9.0    0.003    0.057    0.242    0.345
 fm_Gamma_ao_to_cfm_ikp_mo           62  9.0    0.000    0.000    0.337    0.343
 build_3c_integrals_put_dbcsr      1928 10.6    0.054    0.330    0.054    0.330
 dbcsr_rep_row_to_rep_col_vec      4855  8.0    0.008    0.010    0.162    0.328
 cp_fm_power                          3  8.7    0.001    0.001    0.317    0.320
 cp_fm_write_unformatted            128  9.8    0.249    0.291    0.250    0.317
 dbt_reserve_blocks_index           824 12.3    0.001    0.002    0.207    0.310
 fft_wrap_pw1pw2_10                 264 10.5    0.001    0.002    0.291    0.307
 dbt_tas_reshape_buffer_fill        638 15.5    0.198    0.304    0.198    0.304
 dbt_tas_reshape_alltoall           638 15.5    0.001    0.001    0.294    0.300
 transfer_pw2rs_10                  132 12.0    0.076    0.089    0.263    0.288
 cp_fm_symm                         131  7.0    0.272    0.284    0.272    0.284
 mp_irecv_dv                      52155 12.0    0.031    0.277    0.031    0.277
 calculate_dm_sparse                131  6.0    0.000    0.001    0.233    0.247
 cp_dbcsr_plus_fm_fm_t              131  7.0    0.001    0.001    0.232    0.245
 multiply_fm_W_MIC_time_with_Mi       2  9.0    0.000    0.000    0.240    0.240
 mp_rank_compare                   2763 13.0    0.225    0.238    0.225    0.238
 dbt_tas_replicate_alltoall         304 15.5    0.000    0.000    0.201    0.237
 pw_zero                            788 10.3    0.210    0.236    0.210    0.236
 dbt_tas_reshape_communicate_bu     638 15.5    0.005    0.007    0.153    0.235
 transfer_rs2pw_10                  132  9.0    0.089    0.102    0.206    0.228
 dbt_tas_merge                      182 14.2    0.023    0.037    0.183    0.219
 dbm_add                            486 14.4    0.076    0.214    0.076    0.214
 dbt_crop                           212 11.0    0.103    0.151    0.147    0.210
 mp_cart_sub                        668 10.0    0.198    0.208    0.198    0.208
 qs_init_subsys                       1  2.0    0.002    0.002    0.202    0.202
 dbcsr_col_vec_to_rep_row          4855  8.0    0.010    0.013    0.101    0.191
 dbt_reserve_blocks_index_array     516 12.0    0.001    0.001    0.121    0.190
 dbcsr_multiply_generic             131  8.0    0.004    0.004    0.173    0.183
 qs_env_setup                         1  3.0    0.000    0.000    0.178    0.180
 qs_env_rebuild_pw_env                2  3.5    0.000    0.000    0.177    0.180
 pw_env_rebuild                       1  5.0    0.000    0.000    0.177    0.180
 cp_cfm_geeig                         2  7.0    0.000    0.000    0.178    0.179
 cube_transpose_2                   264 11.0    0.003    0.005    0.059    0.154
 dbt_tas_merge_communicate_buff     182 15.2    0.001    0.002    0.119    0.146
 copy_fm_to_dbcsr                   414  8.4    0.001    0.001    0.123    0.143
 cp_cfm_cholesky_invert              31 11.0    0.129    0.139    0.129    0.139
 get_l_sq_wghts_cos_tf_w_to_t         1  8.0    0.111    0.126    0.112    0.128
 alloc_block_3c                     156 10.6    0.003    0.004    0.092    0.126
 pw_grid_setup                        4  6.0    0.000    0.000    0.123    0.126
 pw_grid_setup_internal               4  7.0    0.001    0.001    0.123    0.126
 get_l_sq_wghts_sin_tf_t_to_w         1  8.0    0.114    0.123    0.114    0.123
 get_l_sq_wghts_cos_tf_t_to_w         1  8.0    0.116    0.119    0.116    0.119
 create_and_init_bs_env               1  5.0    0.000    0.000    0.114    0.114
 dbcsr_add_d                       8297  7.5    0.002    0.003    0.022    0.113
 dbcsr_add_anytype                 8297  8.5    0.004    0.017    0.019    0.110
 cp_cfm_cholesky_decompose           35 10.7    0.098    0.104    0.098    0.104
 dbt_create_new                     158 10.0    0.001    0.001    0.096    0.102
 dos_pdos_ldos                        1  5.0    0.000    0.000    0.096    0.100
 create_qs_kind_set                   1  2.0    0.000    0.000    0.099    0.100
 read_qs_kind                         4  3.0    0.023    0.044    0.099    0.100
 cp_fm_redistribute_start           137  8.1    0.006    0.007    0.083    0.098
 multiply_cannon                    131  9.0    0.007    0.025    0.089    0.097
 rs_scatter_matrices                132  7.0    0.001    0.002    0.020    0.087
 compute_fm_chi_Gamma_freq           30 10.0    0.000    0.000    0.075    0.084
 dbt_copy_nocomm                     30 10.0    0.040    0.059    0.060    0.083
 dbcsr_finalize                   11984 11.0    0.007    0.026    0.027    0.082
 mp_alltoall_i11v                  2548 10.2    0.050    0.082    0.050    0.082
 diagonalize_ks_matrix                1  6.0    0.000    0.000    0.081    0.081
 cp_fm_geeig_canon                    1  7.0    0.000    0.000    0.081    0.081
 vxc_of_r_new                       524  9.0    0.000    0.008    0.002    0.080
 parser_read_line                 21898  4.0    0.002    0.002    0.077    0.078
 parser_read_line_low                34  5.0    0.001    0.012    0.075    0.076
 broadcast_input_information         34  6.0    0.004    0.004    0.074    0.076
 cp_fm_uplo_to_full                 140  9.0    0.036    0.075    0.036    0.075
 cp_fm_redistribute_end             137  8.1    0.037    0.071    0.038    0.071
 offload_free_buffer                140  8.7    0.002    0.070    0.002    0.070
 scale_and_distribute               264 10.0    0.051    0.070    0.051    0.070
 dbt_pgrid_create_expert            320 11.5    0.001    0.001    0.067    0.069
 mp_isendrecv_dv                 100848 12.0    0.040    0.065    0.040    0.065
 mp_bcast_b_src                     268  7.5    0.015    0.062    0.015    0.062
 dbt_tas_mp_comm                    243 12.9    0.002    0.002    0.060    0.061
 make_m2s                           262  9.0    0.003    0.003    0.055    0.061
 cube_transpose_1                   264 14.0    0.003    0.006    0.033    0.058
 fill_fm_Sigma_c_Gamma_time           1  8.0    0.000    0.000    0.057    0.058
 mp_bcast_dv                       4857  9.0    0.034    0.057    0.034    0.057
 multiply_cannon_loop               131 10.0    0.006    0.006    0.045    0.054
 dbcsr_copy                       20459  7.6    0.017    0.039    0.032    0.054
 mp_sum_i                           648 14.2    0.047    0.052    0.047    0.052
 mp_comm_free                      7252 13.4    0.045    0.049    0.045    0.049
 dbt_tas_create_new                2345 14.5    0.012    0.049    0.012    0.049
 mp_bcast_i_src                     136  7.0    0.045    0.047    0.045    0.047
 allocate_and_fill_fm_ks_fm_s         1  6.0    0.000    0.000    0.028    0.047
 -------------------------------------------------------------------------------

 The number of warnings for this run is : 1
 
 -------------------------------------------------------------------------------
  **** **** ******  **  PROGRAM ENDED AT                 2025-10-26 20:47:38.851
 ***** ** ***  *** **   PROGRAM RAN ON                                    cn0421
 **    ****   ******    PROGRAM RAN BY                                  metdyn02
 ***** **    ** ** **   PROGRAM PROCESS ID                               2321545
  **** **  *******  **  PROGRAM STOPPED IN /scratch/hpc-prf-metdyn/metdyn02_Remi
                                           /04_mol/Benchmark_mol_low_scal/aUKBqs
                                           EOTmq69kFe5R_nOg/5k_set_final_qzvp/DU
                                           NVEN/TZVP/1e-4/3.0
