&GLOBAL
  PROJECT  MoS2
  PRINT_LEVEL MEDIUM
  RUN_TYPE ENERGY
  &TIMINGS
     THRESHOLD 0.0001
  &END
  TRACE
  TRACE_MASTER
  TRACE_ROUTINES compute_chi dbt_create_2c_R dbt_create_3c_R1_R2 dbt_create G_occ_vir contract_M_occ_vir_to_chi local_dbt_to_global_fm
&END GLOBAL
&FORCE_EVAL
  METHOD Quickstep
  &PROPERTIES
  &TDDFPT                          ! input section for TDDFPT
       KERNEL FULL                       ! specification of the underlying kernel matrix K
                                         ! FULL kernel is for GGA and hybrid functional computations
                                         ! sTDA kernel is referring to a semi-empirical sTDA computation
       NSTATES 20                      ! specifies the number of excited states to be computed
       MAX_ITER   100                  ! number of iterations for the Davidson algorithm
       CONVERGENCE [eV] 1.0e-6         ! convergence threshold in eV
       &XC                            ! If choosing kernel FULL, the underlying functional can be
        &XC_FUNCTIONAL PBE0             ! specified by adding an XC section
        &END XC_FUNCTIONAL              ! The functional can be chosen independently from the chosen
  	 &HF
          &MEMORY 
            MAX_MEMORY 22000
  	   &END MEMORY
  	 &END HF
       &END XC                        ! GS functional except when choosing ADMM 
    &END TDDFPT
    &END PROPERTIES
  &DFT
    BASIS_SET_FILE_NAME /hppfs/scratch/04/di38fab/04_TMD/BASIS_AUG_MOLOPT/BASIS_ALL_MOLOPT_AUG_for_excited_states
    BASIS_SET_FILE_NAME /hppfs/scratch/04/di38fab/04_TMD/BASIS_AUG_MOLOPT/BASIS_ALL_MOLOPT_AUG_for_excited_states_RI
    BASIS_SET_FILE_NAME /hppfs/scratch/04/di38fab/04_TMD/BASIS_AUG_MOLOPT/aug-cc-pVZ
    BASIS_SET_FILE_NAME /hppfs/scratch/04/di38fab/04_TMD/BASIS_AUG_MOLOPT/aug-cc-pVZ-TOTRI
    BASIS_SET_FILE_NAME /hppfs/scratch/04/di38fab/04_TMD/BASIS_AUG_MOLOPT/cc-pVZ
    BASIS_SET_FILE_NAME /hppfs/scratch/04/di38fab/04_TMD/BASIS_AUG_MOLOPT/cc-pVZ-RI
    BASIS_SET_FILE_NAME /hppfs/scratch/04/di38fab/04_TMD/BASIS_AUG_MOLOPT/BASIS_MOLOPT_UZH
    SORT_BASIS EXP
    POTENTIAL_FILE_NAME  /hppfs/work/pn36zo/di38fab/cp2k/data/ALL_POTENTIALS 
    CHARGE 0
    &MGRID
      CUTOFF  500
      REL_CUTOFF  100
    &END MGRID
    &POISSON
      PERIODIC NONE
      POISSON_SOLVER WAVELET
    &END POISSON
    &QS
      METHOD GAPW
      EPS_DEFAULT 1.0E-12
      EPS_PGF_ORB 1.0E-12
    &END QS
    &SCF
        SCF_GUESS RESTART
        MAX_SCF 500
        &OT
        PRECONDITIONER FULL_SINGLE_INVERSE
        MINIMIZER CG
        LINESEARCH 3PNT
        &END
        EPS_SCF 1.0E-6
        &OUTER_SCF
        MAX_SCF 20
        EPS_SCF 1.0E-6
        &END
        &PRINT
        &RESTART
        &EACH
        MD 0
        &END EACH
        &END
        &END
      &END SCF       
    &XC
      &XC_FUNCTIONAL PBE0
      &END XC_FUNCTIONAL
      &HF
         &MEMORY
          MAX_MEMORY 22000
         &END MEMORY
      &END HF
    !  &WF_CORRELATION
    !  	&RI_RPA
!	  QUADRATURE_POINTS 100
!      	  &GW
!	    CORR_MOS_OCC -1
!	    CORR_MOS_VIRT -1
!	    &BSE
!              BSE_DIAG_METHOD FULLDIAG
!              TDA OFF
!            &END BSE 
!          &END GW	
!        &END RI_RPA
!      &END WF_CORRELATION
    &END XC
    &PRINT
    &OVERLAP_CONDITION ON
    DIAGONALIZATION T
    &END OVERLAP_CONDITION
    &END PRINT
  &END DFT
    &SUBSYS
    &CELL
      ABC                 30 30 30
      ALPHA_BETA_GAMMA    90 90 90
      PERIODIC NONE
    &END CELL

     &KIND H
      BASIS_SET ORB QZVPP-MOLOPT-GGA-ae
      BASIS_SET RI_AUX aug-cc-pV5Z-OPTRI
      POTENTIAL ALL
     &END KIND

     &KIND C
      BASIS_SET ORB QZVPP-MOLOPT-GGA-ae
      BASIS_SET RI_AUX aug-cc-pV5Z-OPTRI
      POTENTIAL ALL
     &END KIND

     &KIND P
      BASIS_SET ORB QZVPP-MOLOPT-GGA-ae
      BASIS_SET RI_AUX aug-cc-pV5Z-OPTRI
      POTENTIAL ALL
     &END KIND

     &KIND F
      BASIS_SET ORB QZVPP-MOLOPT-GGA-ae
      BASIS_SET RI_AUX aug-cc-pV5Z-OPTRI
      POTENTIAL ALL
     &END KIND

     &KIND N
      BASIS_SET ORB QZVPP-MOLOPT-GGA-ae
      BASIS_SET RI_AUX aug-cc-pV5Z-OPTRI
      POTENTIAL ALL
     &END KIND

     &KIND S
      BASIS_SET ORB QZVPP-MOLOPT-GGA-ae
      BASIS_SET RI_AUX aug-cc-pV5Z-OPTRI
      POTENTIAL ALL
     &END KIND

    




    &TOPOLOGY
     &CENTER_COORDINATES T
     &END CENTER_COORDINATES
    &END TOPOLOGY


    &COORD
     H 20.43634332 27.83038678 21.54137305
     C 21.03923581 27.37876411 22.33896851
     H 20.72525345 29.04304140 23.70055557
     H 20.43764621 26.61877912 22.85745531
     P 26.46381071 27.91423528 21.06333549
     P 25.00776319 28.79796640 18.93157954
     F 27.26982218 26.57692465 21.10548072
     F 24.82947440 27.99610175 17.60176692
     F 25.10648297 30.22711852 18.30901513
     N 26.41583822 28.42546337 19.56173337
     N 23.68671136 28.70074133 19.79020525
     S 22.65854581 29.59172543 22.44801864
     S 22.45172909 26.46838797 21.62110153
     P 23.68845771 28.14682711 21.30930369
     F 27.47597598 28.80052859 21.85895712
     N 25.13739256 27.74228528 21.90183494
     C 21.55147326 28.42694733 23.31835102
     H 22.07733454 27.96729846 24.16435809
&END COORD
  &END SUBSYS
&END FORCE_EVAL
