&GLOBAL
  PROJECT  MoS2
  PRINT_LEVEL MEDIUM
  RUN_TYPE ENERGY
  &TIMINGS
     THRESHOLD 0.0001
  &END
  TRACE
  TRACE_MASTER
  TRACE_ROUTINES compute_chi dbt_create_2c_R dbt_create_3c_R1_R2 dbt_create G_occ_vir contract_M_occ_vir_to_chi local_dbt_to_global_fm
&END GLOBAL
&FORCE_EVAL
  METHOD Quickstep
  &PROPERTIES
  &TDDFPT                          ! input section for TDDFPT
       KERNEL FULL                       ! specification of the underlying kernel matrix K
                                         ! FULL kernel is for GGA and hybrid functional computations
                                         ! sTDA kernel is referring to a semi-empirical sTDA computation
       NSTATES 20                      ! specifies the number of excited states to be computed
       MAX_ITER   100                  ! number of iterations for the Davidson algorithm
       CONVERGENCE [eV] 1.0e-6         ! convergence threshold in eV
       &XC                            ! If choosing kernel FULL, the underlying functional can be
        &XC_FUNCTIONAL PBE0             ! specified by adding an XC section
        &END XC_FUNCTIONAL              ! The functional can be chosen independently from the chosen
  	 &HF
          &MEMORY 
            MAX_MEMORY 8000
  	   &END MEMORY
  	 &END HF
       &END XC                        ! GS functional except when choosing ADMM 
    &END TDDFPT
    &END PROPERTIES
  &DFT
    BASIS_SET_FILE_NAME /hppfs/scratch/04/di38fab/04_TMD/BASIS_AUG_MOLOPT/BASIS_ALL_MOLOPT_AUG_for_excited_states
    BASIS_SET_FILE_NAME /hppfs/scratch/04/di38fab/04_TMD/BASIS_AUG_MOLOPT/BASIS_ALL_MOLOPT_AUG_for_excited_states_RI
    BASIS_SET_FILE_NAME /hppfs/scratch/04/di38fab/04_TMD/BASIS_AUG_MOLOPT/aug-cc-pVZ
    BASIS_SET_FILE_NAME /hppfs/scratch/04/di38fab/04_TMD/BASIS_AUG_MOLOPT/aug-cc-pVZ-TOTRI
    BASIS_SET_FILE_NAME /hppfs/scratch/04/di38fab/04_TMD/BASIS_AUG_MOLOPT/cc-pVZ
    BASIS_SET_FILE_NAME /hppfs/scratch/04/di38fab/04_TMD/BASIS_AUG_MOLOPT/cc-pVZ-RI
    BASIS_SET_FILE_NAME /hppfs/scratch/04/di38fab/04_TMD/BASIS_AUG_MOLOPT/BASIS_MOLOPT_UZH
    SORT_BASIS EXP
    POTENTIAL_FILE_NAME  /hppfs/work/pn36zo/di38fab/cp2k/data/ALL_POTENTIALS 
    CHARGE 0
    &MGRID
      CUTOFF  500
      REL_CUTOFF  100
    &END MGRID
    &POISSON
      PERIODIC NONE
      POISSON_SOLVER WAVELET
    &END POISSON
    &QS
      METHOD GAPW
      EPS_DEFAULT 1.0E-12
      EPS_PGF_ORB 1.0E-12
    &END QS
     &SCF
        SCF_GUESS RESTART
        MAX_SCF 500
        &OT
        PRECONDITIONER FULL_SINGLE_INVERSE
        MINIMIZER CG
        LINESEARCH 3PNT
        &END
        EPS_SCF 1.0E-6
        &OUTER_SCF
        MAX_SCF 20
        EPS_SCF 1.0E-6
        &END
        &PRINT
        &RESTART
        &EACH
        MD 0
        &END EACH
        &END
        &END
      &END SCF    
    &XC
      &XC_FUNCTIONAL PBE0
      &END XC_FUNCTIONAL
      &HF
         &MEMORY
          MAX_MEMORY 8000
         &END MEMORY
      &END HF
      !&WF_CORRELATION
      !	&RI_RPA
      !	  QUADRATURE_POINTS 100
      !	  &GW
      !	    CORR_MOS_OCC -1
      !	    CORR_MOS_VIRT -1
      !	    &BSE
      !        BSE_DIAG_METHOD FULLDIAG
      !        TDA OFF
      !      &END BSE 
      !    &END GW	
      !  &END RI_RPA
      !&END WF_CORRELATION
    &END XC
    &PRINT
    &OVERLAP_CONDITION ON
    DIAGONALIZATION T
    &END OVERLAP_CONDITION
    &END PRINT
  &END DFT
    &SUBSYS
    &CELL
      ABC                 30 30 30
      ALPHA_BETA_GAMMA    90 90 90
      PERIODIC NONE
    &END CELL

     &KIND C
      BASIS_SET ORB cc-pVTZ
      BASIS_SET RI_AUX cc-pVTZ-RIFIT
      POTENTIAL ALL
     &END KIND

     &KIND H
      BASIS_SET ORB cc-pVTZ
      BASIS_SET RI_AUX cc-pVTZ-RIFIT
      POTENTIAL ALL
     &END KIND

     &KIND N
      BASIS_SET ORB cc-pVTZ
      BASIS_SET RI_AUX cc-pVTZ-RIFIT
      POTENTIAL ALL
     &END KIND

     &KIND Li
      BASIS_SET ORB cc-pVTZ
      BASIS_SET RI_AUX cc-pVTZ-RIFIT
      POTENTIAL ALL
     &END KIND

    




    &TOPOLOGY
     &CENTER_COORDINATES T
     &END CENTER_COORDINATES
    &END TOPOLOGY


    &COORD
     c -2.26720424360436 -1.2336455918649631 -0.0021687347714744966
     h -2.8073993119002747 -1.5228669580773078 0.8952294181523297
     c -1.8664339141118476 0.09630589915073286 0.0018329093626866788
     h -2.795343395438472 -1.521041140427847 -0.9073265200790432
     n -1.4164891787492466 1.175251447688118 0.006055000073385437
     li -0.2861358617504327 -1.9726866908646405 0.0063779272621053654
     c 2.26720424360436 1.2336455918649631 -0.0021687347714744966
     h 2.8073993119002747 1.5228669580773078 0.8952294181523297
     c 1.8664339141118476 -0.09630589915073286 0.0018329093626866788
     h 2.795343395438472 1.521041140427847 -0.9073265200790432
     n 1.4164891787492466 -1.175251447688118 0.006055000073385437
     li 0.2861358617504327 1.9726866908646405 0.0063779272621053654
&END COORD
  &END SUBSYS
&END FORCE_EVAL
