&GLOBAL
  PROJECT  MoS2
  PRINT_LEVEL MEDIUM
  RUN_TYPE ENERGY
  &TIMINGS
     THRESHOLD 0.0001
  &END
  TRACE
  TRACE_MASTER
  TRACE_ROUTINES compute_chi dbt_create_2c_R dbt_create_3c_R1_R2 dbt_create G_occ_vir contract_M_occ_vir_to_chi local_dbt_to_global_fm
&END GLOBAL
&FORCE_EVAL
  METHOD Quickstep
  !&PROPERTIES
  !&TDDFPT                          ! input section for TDDFPT
  !     KERNEL FULL                       ! specification of the underlying kernel matrix K
  !                                       ! FULL kernel is for GGA and hybrid functional computations
  !                                       ! sTDA kernel is referring to a semi-empirical sTDA computation
  !     NSTATES 20                      ! specifies the number of excited states to be computed
  !     MAX_ITER   100                  ! number of iterations for the Davidson algorithm
  !     CONVERGENCE [eV] 1.0e-6         ! convergence threshold in eV
  !     &XC                            ! If choosing kernel FULL, the underlying functional can be
  !      &XC_FUNCTIONAL PBE0             ! specified by adding an XC section
  !      &END XC_FUNCTIONAL              ! The functional can be chosen independently from the chosen
  !	 &HF
  !        &MEMORY 
  !          MAX_MEMORY 8000
  !	   &END MEMORY
  !	 &END HF
  !     &END XC                        ! GS functional except when choosing ADMM 
  !  &END TDDFPT
  !  &END PROPERTIES
  &DFT
    BASIS_SET_FILE_NAME /hppfs/scratch/04/di38fab/04_TMD/BASIS_AUG_MOLOPT/BASIS_ALL_MOLOPT_AUG_for_excited_states
    BASIS_SET_FILE_NAME /hppfs/scratch/04/di38fab/04_TMD/BASIS_AUG_MOLOPT/BASIS_ALL_MOLOPT_AUG_for_excited_states_RI
    BASIS_SET_FILE_NAME /hppfs/scratch/04/di38fab/04_TMD/BASIS_AUG_MOLOPT/aug-cc-pVZ
    BASIS_SET_FILE_NAME /hppfs/scratch/04/di38fab/04_TMD/BASIS_AUG_MOLOPT/aug-cc-pVZ-TOTRI
    BASIS_SET_FILE_NAME /hppfs/scratch/04/di38fab/04_TMD/BASIS_AUG_MOLOPT/cc-pVZ
    BASIS_SET_FILE_NAME /hppfs/scratch/04/di38fab/04_TMD/BASIS_AUG_MOLOPT/cc-pVZ-RI
    BASIS_SET_FILE_NAME /hppfs/scratch/04/di38fab/04_TMD/BASIS_AUG_MOLOPT/BASIS_MOLOPT_UZH
    SORT_BASIS EXP
    POTENTIAL_FILE_NAME  /hppfs/work/pn36zo/di38fab/cp2k/data/ALL_POTENTIALS 
    CHARGE 0
    &MGRID
      CUTOFF  500
      REL_CUTOFF  100
    &END MGRID
    &POISSON
      PERIODIC NONE
      POISSON_SOLVER WAVELET
    &END POISSON
    &QS
      METHOD GAPW
      EPS_DEFAULT 1.0E-12
      EPS_PGF_ORB 1.0E-12
    &END QS
    &SCF
      SCF_GUESS ATOMIC
      EPS_SCF 1.0E-6
      MAX_SCF 500
      &PRINT
        &RESTART ON
        &END
      &END
      ADDED_MOS -1
      &MIXING
          METHOD BROYDEN_MIXING
          ALPHA 0.1
          BETA 1.5
          NBROYDEN 8
      &END
      CHOLESKY OFF
    &END SCF
    &XC
      &XC_FUNCTIONAL PBE0
      &END XC_FUNCTIONAL
      &HF
         &MEMORY
          MAX_MEMORY 8000
         &END MEMORY
      &END HF
      &WF_CORRELATION
      	&RI_RPA
	  QUADRATURE_POINTS 100
      	  &GW
	    CORR_MOS_OCC -1
	    CORR_MOS_VIRT -1
	    &BSE
              BSE_DIAG_METHOD FULLDIAG
              TDA OFF
            &END BSE 
          &END GW	
        &END RI_RPA
      &END WF_CORRELATION
    &END XC
    &PRINT
    &OVERLAP_CONDITION ON
    DIAGONALIZATION T
    &END OVERLAP_CONDITION
    &END PRINT
  &END DFT
    &SUBSYS
    &CELL
      ABC                 30 30 30
      ALPHA_BETA_GAMMA    90 90 90
      PERIODIC NONE
    &END CELL

     &KIND C
      BASIS_SET ORB cc-pVQZ
      BASIS_SET RI_AUX cc-pVQZ-RIFIT
      POTENTIAL ALL
     &END KIND

     &KIND N
      BASIS_SET ORB cc-pVQZ
      BASIS_SET RI_AUX cc-pVQZ-RIFIT
      POTENTIAL ALL
     &END KIND

     &KIND S
      BASIS_SET ORB cc-pVQZ
      BASIS_SET RI_AUX cc-pVQZ-RIFIT
      POTENTIAL ALL
     &END KIND

    




    &TOPOLOGY
     &CENTER_COORDINATES T
     &END CENTER_COORDINATES
    &END TOPOLOGY


    &COORD
     C 23.68463533 19.59426144 26.78589536
     C 24.04832104 17.07955386 26.73273456
     C 22.27152179 19.58266479 26.95297667
     N 23.63119817 15.99431458 26.77760469
     N 21.11695418 19.53663593 27.08937079
     N 25.81260272 18.70422246 26.53061070
     C 24.51647313 18.42241705 26.68278110
     S 25.93620435 20.33006987 26.52256290
     N 24.36869136 20.73826367 26.70961627
&END COORD
  &END SUBSYS
&END FORCE_EVAL
