&GLOBAL
  PROJECT  MoS2
  PRINT_LEVEL MEDIUM
  RUN_TYPE ENERGY
  &TIMINGS
     THRESHOLD 0.0001
  &END
  TRACE
  TRACE_MASTER
  TRACE_ROUTINES compute_chi dbt_create_2c_R dbt_create_3c_R1_R2 dbt_create G_occ_vir contract_M_occ_vir_to_chi local_dbt_to_global_fm
&END GLOBAL
&FORCE_EVAL
  METHOD Quickstep
  !&PROPERTIES
  !&TDDFPT                          ! input section for TDDFPT
  !     KERNEL FULL                       ! specification of the underlying kernel matrix K
  !                                       ! FULL kernel is for GGA and hybrid functional computations
  !                                       ! sTDA kernel is referring to a semi-empirical sTDA computation
  !     NSTATES 20                      ! specifies the number of excited states to be computed
  !     MAX_ITER   100                  ! number of iterations for the Davidson algorithm
  !     CONVERGENCE [eV] 1.0e-6         ! convergence threshold in eV
  !     &XC                            ! If choosing kernel FULL, the underlying functional can be
  !      &XC_FUNCTIONAL PBE0             ! specified by adding an XC section
  !      &END XC_FUNCTIONAL              ! The functional can be chosen independently from the chosen
  !	 &HF
  !        &MEMORY 
  !          MAX_MEMORY 8000
  !	   &END MEMORY
  !	 &END HF
  !     &END XC                        ! GS functional except when choosing ADMM 
  !  &END TDDFPT
  !  &END PROPERTIES
  &DFT
    BASIS_SET_FILE_NAME /scratch/hpc-prf-metdyn/metdyn02_Remi/BASIS_AUG_MOLOPT/BASIS_ALL_MOLOPT_AUG_for_excited_states
    BASIS_SET_FILE_NAME /scratch/hpc-prf-metdyn/metdyn02_Remi/BASIS_AUG_MOLOPT/BASIS_ALL_MOLOPT_AUG_for_excited_states_RI
    BASIS_SET_FILE_NAME /scratch/hpc-prf-metdyn/metdyn02_Remi/BASIS_AUG_MOLOPT/aug-cc-pVZ
    BASIS_SET_FILE_NAME /scratch/hpc-prf-metdyn/metdyn02_Remi/BASIS_AUG_MOLOPT/aug-cc-pVZ-TOTRI
    SORT_BASIS EXP
    POTENTIAL_FILE_NAME  /pc2/groups/hpc-prf-metdyn/metdyn02_Remi/cp2k/cp2k/data/ALL_POTENTIALS 
    CHARGE 0
    &MGRID
      CUTOFF  500
      REL_CUTOFF  100
    &END MGRID
    &POISSON
      PERIODIC NONE
      POISSON_SOLVER WAVELET
    &END POISSON
    &QS
      METHOD GAPW
      EPS_DEFAULT 1.0E-12
      EPS_PGF_ORB 1.0E-12
    &END QS
    &SCF
      SCF_GUESS ATOMIC
      EPS_SCF 1.0E-6
      MAX_SCF 500
      &PRINT
        &RESTART ON
        &END
      &END
      ADDED_MOS -1
      &MIXING
          METHOD BROYDEN_MIXING
          ALPHA 0.1
          BETA 1.5
          NBROYDEN 8
      &END
      CHOLESKY OFF
    &END SCF
    &XC
      &XC_FUNCTIONAL PBE0
      &END XC_FUNCTIONAL
      &HF
         &MEMORY
          MAX_MEMORY 64000
         &END MEMORY
      &END HF
      &WF_CORRELATION
      	&RI_RPA
	  QUADRATURE_POINTS 100
      	  &GW
	    CORR_MOS_OCC -1
	    CORR_MOS_VIRT -1
	    &BSE
              BSE_DIAG_METHOD FULLDIAG
              TDA OFF
            &END BSE 
          &END GW	
        &END RI_RPA
      &END WF_CORRELATION
    &END XC
    &PRINT
    &OVERLAP_CONDITION ON
    DIAGONALIZATION T
    &END OVERLAP_CONDITION
    &END PRINT
  &END DFT
    &SUBSYS
    &CELL
      ABC                 30 30 30
      ALPHA_BETA_GAMMA    90 90 90
      PERIODIC NONE
    &END CELL

     &KIND O
      BASIS_SET ORB aug-SZV-MOLOPT-ae-mini
      BASIS_SET RI_AUX RI_aug-SZV-MOLOPT-ae-mini_N_RI_047_s_p_d_f_g_h_i_7_5_5_0_0_0_0_error_2.2e-08
      POTENTIAL ALL
     &END KIND

     &KIND H
      BASIS_SET ORB aug-SZV-MOLOPT-ae-mini
      BASIS_SET RI_AUX RI_aug-SZV-MOLOPT-ae_N_RI_035_s_p_d_f_g_h_i_7_6_2_0_0_0_0_error_5.1e-08
      POTENTIAL ALL
     &END KIND

     &KIND N
      BASIS_SET ORB aug-SZV-MOLOPT-ae-mini
      BASIS_SET RI_AUX RI_aug-SZV-MOLOPT-ae-mini_N_RI_047_s_p_d_f_g_h_i_7_5_5_0_0_0_0_error_6.8e-09
      POTENTIAL ALL
     &END KIND

     &KIND C
      BASIS_SET ORB aug-SZV-MOLOPT-ae-mini
      BASIS_SET RI_AUX RI_aug-SZV-MOLOPT-ae-mini_N_RI_055_s_p_d_f_g_h_i_7_6_6_0_0_0_0_error_2.0e-11
      POTENTIAL ALL
     &END KIND

    




    &TOPOLOGY
     &CENTER_COORDINATES T
     &END CENTER_COORDINATES
    &END TOPOLOGY


    &COORD
     O 25.91107341 31.96651392 36.40621686
     H 28.11281237 32.20938821 35.57125265
     N 27.50834385 34.90037286 33.85201576
     N 27.55814525 32.97291556 35.20037693
     N 25.39165941 33.86806295 35.22335462
     C 26.22161984 32.89083619 35.66111690
     C 28.20365672 33.87268607 34.36803581
     C 29.57512016 33.67996763 34.08861849
     C 30.21650588 34.58140353 33.25717109
     C 29.49669381 35.65452765 32.71672071
     C 28.15240456 35.76107139 33.04845318
     H 25.76288655 34.59043845 34.59924603
     H 24.43138493 33.83309397 35.53430628
     H 30.11076461 32.83571625 34.52302085
     H 31.27426508 34.45171035 33.02834454
     H 29.96579717 36.38362725 32.05936278
     H 27.54421661 36.57836779 32.65479826
&END COORD
  &END SUBSYS
&END FORCE_EVAL
