&GLOBAL
  PROJECT  MoS2
  PRINT_LEVEL MEDIUM
  RUN_TYPE ENERGY
  &TIMINGS
     THRESHOLD 0.0001
  &END
  TRACE
  TRACE_MASTER
  TRACE_ROUTINES compute_chi dbt_create_2c_R dbt_create_3c_R1_R2 dbt_create G_occ_vir contract_M_occ_vir_to_chi local_dbt_to_global_fm
&END GLOBAL
&FORCE_EVAL
  METHOD Quickstep
  &PROPERTIES
  &TDDFPT                          ! input section for TDDFPT
       KERNEL FULL                       ! specification of the underlying kernel matrix K
                                         ! FULL kernel is for GGA and hybrid functional computations
                                         ! sTDA kernel is referring to a semi-empirical sTDA computation
       NSTATES 20                      ! specifies the number of excited states to be computed
       MAX_ITER   100                  ! number of iterations for the Davidson algorithm
       CONVERGENCE [eV] 1.0e-6         ! convergence threshold in eV
       &XC                            ! If choosing kernel FULL, the underlying functional can be
        &XC_FUNCTIONAL PBE0             ! specified by adding an XC section
        &END XC_FUNCTIONAL              ! The functional can be chosen independently from the chosen
  	 &HF
          &MEMORY 
            MAX_MEMORY 8000
  	   &END MEMORY
  	 &END HF
       &END XC                        ! GS functional except when choosing ADMM 
    &END TDDFPT
   &END PROPERTIES
  &DFT
    BASIS_SET_FILE_NAME /scratch/hpc-prf-metdyn/metdyn02_Remi/BASIS_AUG_MOLOPT/BASIS_ALL_MOLOPT_AUG_for_excited_states
    BASIS_SET_FILE_NAME /scratch/hpc-prf-metdyn/metdyn02_Remi/BASIS_AUG_MOLOPT/BASIS_ALL_MOLOPT_AUG_for_excited_states_RI
    BASIS_SET_FILE_NAME /scratch/hpc-prf-metdyn/metdyn02_Remi/BASIS_AUG_MOLOPT/aug-cc-pVZ
    BASIS_SET_FILE_NAME /scratch/hpc-prf-metdyn/metdyn02_Remi/BASIS_AUG_MOLOPT/aug-cc-pVZ-TOTRI
    SORT_BASIS EXP
    POTENTIAL_FILE_NAME  /pc2/groups/hpc-prf-metdyn/metdyn02_Remi/cp2k/cp2k/data/ALL_POTENTIALS 
    CHARGE 0
    &MGRID
      CUTOFF  500
      REL_CUTOFF  100
    &END MGRID
    &POISSON
      PERIODIC NONE
      POISSON_SOLVER WAVELET
    &END POISSON
    &QS
      METHOD GAPW
      EPS_DEFAULT 1.0E-12
      EPS_PGF_ORB 1.0E-12
    &END QS
    &SCF
      SCF_GUESS ATOMIC
      EPS_SCF 1.0E-6
      MAX_SCF 500
      &PRINT
        &RESTART ON
        &END
      &END
      ADDED_MOS -1
      &MIXING
          METHOD BROYDEN_MIXING
          ALPHA 0.1
          BETA 1.5
          NBROYDEN 8
      &END
      CHOLESKY OFF
    &END SCF
    &XC
      &XC_FUNCTIONAL PBE0
      &END XC_FUNCTIONAL
      &HF
         &MEMORY
          MAX_MEMORY 8000
         &END MEMORY
      &END HF
     ! &WF_CORRELATION
     ! 	&RI_RPA
     !	  QUADRATURE_POINTS 100
     ! 	  &GW
     !	    CORR_MOS_OCC -1
     !	    CORR_MOS_VIRT -1
     !	    &BSE
     !         BSE_DIAG_METHOD FULLDIAG
     !        TDA OFF
     !      &END BSE 
     !    &END GW	
     !  &END RI_RPA
     !&END WF_CORRELATION
    &END XC
    &PRINT
    &OVERLAP_CONDITION ON
    DIAGONALIZATION T
    &END OVERLAP_CONDITION
    &END PRINT
  &END DFT
    &SUBSYS
    &CELL
      ABC                 30 30 30
      ALPHA_BETA_GAMMA    90 90 90
      PERIODIC NONE
    &END CELL

     &KIND Cl
      BASIS_SET ORB aug-TZVP-MOLOPT-ae
      BASIS_SET RI_AUX RI_aug-TZVP-MOLOPT-ae_N_RI_116_s_p_d_f_g_h_i_7_6_5_4_3_1_0_error_4.3e-04
      POTENTIAL ALL
     &END KIND

     &KIND C
      BASIS_SET ORB aug-TZVP-MOLOPT-ae
      BASIS_SET RI_AUX RI_aug-TZVP-MOLOPT-ae_N_RI_094_s_p_d_f_g_h_i_7_6_6_3_2_0_0_error_3.2e-06
      POTENTIAL ALL
     &END KIND

     &KIND H
      BASIS_SET ORB aug-TZVP-MOLOPT-ae
      BASIS_SET RI_AUX RI_aug-TZVP-MOLOPT-ae_N_RI_031_s_p_d_f_g_h_i_6_5_2_0_0_0_0_error_4.5e-06
      POTENTIAL ALL
     &END KIND

     &KIND F
      BASIS_SET ORB aug-TZVP-MOLOPT-ae
      BASIS_SET RI_AUX RI_aug-TZVP-MOLOPT-ae_N_RI_109_s_p_d_f_g_h_i_7_6_5_3_3_1_0_error_1.0e-05
      POTENTIAL ALL
     &END KIND

     &KIND N
      BASIS_SET ORB aug-TZVP-MOLOPT-ae
      BASIS_SET RI_AUX RI_aug-TZVP-MOLOPT-ae_N_RI_112_s_p_d_f_g_h_i_7_6_6_4_2_1_0_error_8.5e-06
      POTENTIAL ALL
     &END KIND

    




    &TOPOLOGY
     &CENTER_COORDINATES T
     &END CENTER_COORDINATES
    &END TOPOLOGY


    &COORD
     Cl 14.68746395 23.50881575 30.28222414
     C 17.95190178 21.23046969 29.91760384
     C 16.60256645 21.64666849 29.93912768
     H 15.80042936 20.94553857 29.71896716
     C 16.33424336 22.96070161 30.24574176
     C 17.39578192 23.86294739 30.53059360
     C 17.20811987 25.22749244 30.85429806
     H 16.19597108 25.62647112 30.89195374
     F 21.44855339 22.65975755 31.61007718
     F 22.14637862 24.63287894 31.00403063
     F 21.57646725 23.17835469 29.48520047
     N 18.98070529 22.01515757 30.17199212
     H 18.18362310 20.18966915 29.67591671
     C 18.72566813 23.31544715 30.47580377
     C 19.82422008 24.18587149 30.75547331
     C 21.24204041 23.65271618 30.71036904
     C 19.60148845 25.51143445 31.06739568
     H 20.44862548 26.16055338 31.27758125
     C 18.29211980 26.03347903 31.11698537
     H 18.14460290 27.08349085 31.36581766
&END COORD
  &END SUBSYS
&END FORCE_EVAL
