SIRIUS 7.7.0, git hash: https://api.github.com/repos/electronic-structure/SIRIUS/git/ref/tags/v7.7.0
 DBCSR| CPU Multiplication driver                                           BLAS (U)
 DBCSR| Multrec recursion limit                                              512 (U)
 DBCSR| Multiplication stack size                                           1000 (D)
 DBCSR| Maximum elements for images                                    UNLIMITED (U)
 DBCSR| Multiplicative factor virtual images                                   1 (U)
 DBCSR| Use multiplication densification                                       T (D)
 DBCSR| Multiplication size stacks                                             3 (U)
 DBCSR| Use memory pool for CPU allocation                                     F (U)
 DBCSR| Number of 3D layers                                               SINGLE (U)
 DBCSR| Use MPI memory allocation                                              F (U)
 DBCSR| Use RMA algorithm                                                      F (U)
 DBCSR| Use Communication thread                                               T (U)
 DBCSR| Communication thread load                                             75 (D)
 DBCSR| MPI: My process id                                                     0
 DBCSR| MPI: Number of processes                                             192
 DBCSR| OMP: Current number of threads                                         4
 DBCSR| OMP: Max number of threads                                             4
 DBCSR| Split modifier for TAS multiplication algorithm                  1.0E+00 (U)


  **** **** ******  **  PROGRAM STARTED AT               2025-10-25 02:52:22.000
 ***** ** ***  *** **   PROGRAM STARTED ON                                cn0421
 **    ****   ******    PROGRAM STARTED BY                              metdyn02
 ***** **    ** ** **   PROGRAM PROCESS ID                               1555878
  **** **  *******  **  PROGRAM STARTED IN /scratch/hpc-prf-metdyn/metdyn02_Remi
                                           /04_mol/Benchmark_mol_low_scal/aUKBqs
                                           EOTmq69kFe5R_nOg/5k_set_final_qzvp/OQ
                                           AWOT/DZVP/1e-4/5.0

 CP2K| version string:                 CP2K version 2025.2 (Development Version)
 CP2K| source code revision number:                                  git:2a4e9c4
 CP2K| cp2kflags: omp libint fftw3 libxc libgrpp elpa parallel scalapack mpi_f08
 CP2K|             cosma xsmm plumed2 spglib sirius libvori libbqb libvdwxc hdf5
 CP2K| is freely available from                            https://www.cp2k.org/
 CP2K| Program compiled at                      Fri Oct 24 04:52:17 PM CEST 2025
 CP2K| Program compiled on                                                login1
 CP2K| Program compiled for                                                local
 CP2K| Data directory path    /opt/software/pc2/EB-SW/software/CP2K/2025.2-foss-
 CP2K| Input file name                                                    GW.inp

 GLOBAL| Force Environment number                                              1
 GLOBAL| Basis set file name            /pc2/groups/hpc-prf-metdyn/metdyn02_Remi
 GLOBAL| Potential file name            /pc2/groups/hpc-prf-metdyn/metdyn02_Remi
 GLOBAL| MM Potential file name                                     MM_POTENTIAL
 GLOBAL| Coordinate file name                                      __STD_INPUT__
 GLOBAL| Method name                                                        CP2K
 GLOBAL| Project name                                                       MoS2
 GLOBAL| Run type                                                         ENERGY
 GLOBAL| FFT library                                                       FFTW3
 GLOBAL| Diagonalization library                                            ELPA
 GLOBAL| Cholesky decomposition library                                ScaLAPACK
 GLOBAL| DGEMM library                                                      BLAS
 GLOBAL| Minimum number of eigenvectors for ELPA usage                        16
 GLOBAL| Orthonormality check for eigenvectors                          DISABLED
 GLOBAL| Matrix multiplication library                                     COSMA
 GLOBAL| All-to-all communication in single precision                          F
 GLOBAL| FFTs using library dependent lengths                                  F
 GLOBAL| Grid backend                                                       AUTO
 GLOBAL| Global print level                                               MEDIUM
 GLOBAL| MPI I/O enabled                                                       T
 GLOBAL| Total number of message passing processes                           192
 GLOBAL| Number of distributed systems (nodes)                                 4
 GLOBAL| Number of threads for this process                                    4
 GLOBAL| This output is from process                                           0
 GLOBAL| OpenMP stack size per thread (OMP_STACKSIZE)                    default
 GLOBAL| CPU model name                          AMD EPYC 9655 96-Core Processor
 GLOBAL| CPUID                                                              1003

 MEMORY| system memory details [Kb]
 MEMORY|                        rank 0           min           max       average
 MEMORY| MemTotal            791039040     791039040     791039100     791039065
 MEMORY| MemFree             751790348     751790348     752210932     752054292
 MEMORY| Buffers                  3164          3164          3168          3165
 MEMORY| Cached                7630508       7597472       7630508       7613588
 MEMORY| Slab                  1992788       1921564       1992788       1959965
 MEMORY| SReclaimable           863252        835804        863252        851299
 MEMORY| MemLikelyFree       760287272     760287272     760647376     760522344


 *** Fundamental physical constants (SI units) ***

 *** Literature: B. J. Mohr and B. N. Taylor,
 ***             CODATA recommended values of the fundamental physical
 ***             constants: 2006, Web Version 5.1
 ***             http://physics.nist.gov/constants

 Speed of light in vacuum [m/s]                             2.99792458000000E+08
 Magnetic constant or permeability of vacuum [N/A**2]       1.25663706143592E-06
 Electric constant or permittivity of vacuum [F/m]          8.85418781762039E-12
 Planck constant (h) [J*s]                                  6.62606896000000E-34
 Planck constant (h-bar) [J*s]                              1.05457162825177E-34
 Elementary charge [C]                                      1.60217648700000E-19
 Electron mass [kg]                                         9.10938215000000E-31
 Electron g factor [ ]                                     -2.00231930436220E+00
 Proton mass [kg]                                           1.67262163700000E-27
 Fine-structure constant                                    7.29735253760000E-03
 Rydberg constant [1/m]                                     1.09737315685270E+07
 Avogadro constant [1/mol]                                  6.02214179000000E+23
 Boltzmann constant [J/K]                                   1.38065040000000E-23
 Atomic mass unit [kg]                                      1.66053878200000E-27
 Bohr radius [m]                                            5.29177208590000E-11

 *** Conversion factors ***

 [u] -> [a.u.]                                              1.82288848426455E+03
 [Angstrom] -> [Bohr] = [a.u.]                              1.88972613288564E+00
 [a.u.] = [Bohr] -> [Angstrom]                              5.29177208590000E-01
 [a.u.] -> [s]                                              2.41888432650478E-17
 [a.u.] -> [fs]                                             2.41888432650478E-02
 [a.u.] -> [J]                                              4.35974393937059E-18
 [a.u.] -> [N]                                              8.23872205491840E-08
 [a.u.] -> [K]                                              3.15774647902944E+05
 [a.u.] -> [kJ/mol]                                         2.62549961709828E+03
 [a.u.] -> [kcal/mol]                                       6.27509468713739E+02
 [a.u.] -> [Pa]                                             2.94210107994716E+13
 [a.u.] -> [bar]                                            2.94210107994716E+08
 [a.u.] -> [atm]                                            2.90362800883016E+08
 [a.u.] -> [eV]                                             2.72113838565563E+01
 [a.u.] -> [Hz]                                             6.57968392072181E+15
 [a.u.] -> [1/cm] (wave numbers)                            2.19474631370540E+05
 [a.u./Bohr**2] -> [1/cm]                                   5.14048714338585E+03
 

 CELL_TOP| Volume [angstrom^3]:                                     27000.000000
 CELL_TOP| Vector a [angstrom    30.000     0.000     0.000   |a| =    30.000000
 CELL_TOP| Vector b [angstrom     0.000    30.000     0.000   |b| =    30.000000
 CELL_TOP| Vector c [angstrom     0.000     0.000    30.000   |c| =    30.000000
 CELL_TOP| Angle (b,c), alpha [degree]:                                90.000000
 CELL_TOP| Angle (a,c), beta  [degree]:                                90.000000
 CELL_TOP| Angle (a,b), gamma [degree]:                                90.000000
 CELL_TOP| Numerically orthorhombic:                                         YES
 CELL_TOP| Periodicity                                                      NONE

 GENERATE|  Preliminary Number of Bonds generated:                             0
 GENERATE|  Achieved consistency in connectivity generation.

 CELL| Volume [angstrom^3]:                                         27000.000000
 CELL| Vector a [angstrom]:      30.000     0.000     0.000   |a| =    30.000000
 CELL| Vector b [angstrom]:       0.000    30.000     0.000   |b| =    30.000000
 CELL| Vector c [angstrom]:       0.000     0.000    30.000   |c| =    30.000000
 CELL| Angle (b,c), alpha [degree]:                                    90.000000
 CELL| Angle (a,c), beta  [degree]:                                    90.000000
 CELL| Angle (a,b), gamma [degree]:                                    90.000000
 CELL| Numerically orthorhombic:                                             YES
 CELL| Periodicity                                                          NONE

 CELL_REF| Volume [angstrom^3]:                                     27000.000000
 CELL_REF| Vector a [angstrom    30.000     0.000     0.000   |a| =    30.000000
 CELL_REF| Vector b [angstrom     0.000    30.000     0.000   |b| =    30.000000
 CELL_REF| Vector c [angstrom     0.000     0.000    30.000   |c| =    30.000000
 CELL_REF| Angle (b,c), alpha [degree]:                                90.000000
 CELL_REF| Angle (a,c), beta  [degree]:                                90.000000
 CELL_REF| Angle (a,b), gamma [degree]:                                90.000000
 CELL_REF| Numerically orthorhombic:                                         YES
 CELL_REF| Periodicity                                                      NONE

 *******************************************************************************
 *******************************************************************************
 **                                                                           **
 **     #####                         ##              ##                      **
 **    ##   ##            ##          ##              ##                      **
 **   ##     ##                       ##            ######                    **
 **   ##     ##  ##   ##  ##   #####  ##  ##   ####   ##    #####    #####    **
 **   ##     ##  ##   ##  ##  ##      ## ##   ##      ##   ##   ##  ##   ##   **
 **   ##  ## ##  ##   ##  ##  ##      ####     ###    ##   ######   ######    **
 **    ##  ###   ##   ##  ##  ##      ## ##      ##   ##   ##       ##        **
 **     #######   #####   ##   #####  ##  ##  ####    ##    #####   ##        **
 **           ##                                                    ##        **
 **                                                                           **
 **                                                ... make the atoms dance   **
 **                                                                           **
 **            Copyright (C) by CP2K developers group (2000-2025)             **
 **                      J. Chem. Phys. 152, 194103 (2020)                    **
 **                                                                           **
 *******************************************************************************

 DFT| Spin restricted Kohn-Sham (RKS) calculation                            RKS
 DFT| Multiplicity                                                             1
 DFT| Number of spin states                                                    1
 DFT| Charge                                                                   0
 DFT| Self-interaction correction (SIC)                                       NO
 DFT| Cutoffs: density                                              1.000000E-10
 DFT|          gradient                                             1.000000E-10
 DFT|          tau                                                  1.000000E-10
 DFT|          cutoff_smoothing_range                               0.000000E+00
 DFT| XC density smoothing                                                  NONE
 DFT| XC derivatives                                                          PW

 FUNCTIONAL| PBE:
 FUNCTIONAL| J.P.Perdew, K.Burke, M.Ernzerhof, Phys. Rev. Letter, vol. 77, n 18,
 FUNCTIONAL|  pp. 3865-3868, (1996)sx=0.750sc=1.000{spin unpolarized}           


 QS| Method:                                                                GAPW
 QS| Density plane wave grid type                        NON-SPHERICAL FULLSPACE
 QS| Number of grid levels:                                                    4
 QS| Density cutoff [a.u.]:                                                250.0
 QS| Multi grid cutoff [a.u.]: 1) grid level                               250.0
 QS|                           2) grid level                                83.3
 QS|                           3) grid level                                27.8
 QS|                           4) grid level                                 9.3
 QS| Grid level progression factor:                                          3.0
 QS| Relative density cutoff [a.u.]:                                        50.0
 QS| Interaction thresholds: eps_pgf_orb:                                1.0E-12
 QS|                         eps_filter_matrix:                          0.0E+00
 QS|                         eps_core_charge:                            1.0E-14
 QS|                         eps_rho_gspace:                             1.0E-12
 QS|                         eps_rho_rspace:                             1.0E-12
 QS|                         eps_gvg_rspace:                             1.0E-06
 QS|                         eps_ppl:                                    1.0E-02
 QS|                         eps_ppnl:                                   1.0E-08
 QS| GAPW|      One center basis from orbital basis primitives
 QS| GAPW|                   eps_fit:                                    1.0E-04
 QS| GAPW|                   eps_iso:                                    1.0E-12
 QS| GAPW|                   eps_svd:                                    1.0E-08
 QS| GAPW|                   eps_cpc:                                    1.0E-12
 QS| GAPW|   atom-r-grid: quadrature:                                     GC_LOG
 QS| GAPW|      atom-s-grid:  max l :                                          6
 QS| GAPW|      max_l_rho0 :                                                   2


 ATOMIC KIND INFORMATION

  1. Atomic kind: F                                     Number of atoms:       3

     Orbital Basis Set                                        aug-DZVP-MOLOPT-ae

       Number of orbital shell sets:                                           2
       Number of orbital shells:                                              10
       Number of primitive Cartesian functions:                               13
       Number of Cartesian basis functions:                                   35
       Number of spherical basis functions:                                   30
       Norm type:                                                              2

       Normalised Cartesian orbitals:

                        Set   Shell   Orbital            Exponent    Coefficient

                          1       1    2s                0.070000       0.070494
                                                         0.125000       0.044836
                                                         0.221407      -0.001109
                                                         0.856285      -0.013595
                                                         3.472802       0.000000
                                                        20.861065       0.000000

                          1       2    3px               0.070000       0.000000
                                                         0.125000       0.000000
                                                         0.221407      -0.026524
                                                         0.856285      -0.734779
                                                         3.472802      -2.702296
                                                        20.861065      -5.316254
                          1       2    3py               0.070000       0.000000
                                                         0.125000       0.000000
                                                         0.221407      -0.026524
                                                         0.856285      -0.734779
                                                         3.472802      -2.702296
                                                        20.861065      -5.316254
                          1       2    3pz               0.070000       0.000000
                                                         0.125000       0.000000
                                                         0.221407      -0.026524
                                                         0.856285      -0.734779
                                                         3.472802      -2.702296
                                                        20.861065      -5.316254

                          1       3    4px               0.070000       0.000000
                                                         0.125000       0.000000
                                                         0.221407       0.239225
                                                         0.856285      -0.239059
                                                         3.472802      -0.066644
                                                        20.861065      -3.058634
                          1       3    4py               0.070000       0.000000
                                                         0.125000       0.000000
                                                         0.221407       0.239225
                                                         0.856285      -0.239059
                                                         3.472802      -0.066644
                                                        20.861065      -3.058634
                          1       3    4pz               0.070000       0.000000
                                                         0.125000       0.000000
                                                         0.221407       0.239225
                                                         0.856285      -0.239059
                                                         3.472802      -0.066644
                                                        20.861065      -3.058634

                          1       4    5px               0.070000       0.060900
                                                         0.125000      -0.021205
                                                         0.221407      -0.004399
                                                         0.856285       0.017647
                                                         3.472802       0.000000
                                                        20.861065       0.000000
                          1       4    5py               0.070000       0.060900
                                                         0.125000      -0.021205
                                                         0.221407      -0.004399
                                                         0.856285       0.017647
                                                         3.472802       0.000000
                                                        20.861065       0.000000
                          1       4    5pz               0.070000       0.060900
                                                         0.125000      -0.021205
                                                         0.221407      -0.004399
                                                         0.856285       0.017647
                                                         3.472802       0.000000
                                                        20.861065       0.000000

                          1       5    4dx2              0.070000       0.000000
                                                         0.125000       0.000000
                                                         0.221407       0.039048
                                                         0.856285       0.934541
                                                         3.472802       1.702429
                                                        20.861065       5.185937
                          1       5    4dxy              0.070000       0.000000
                                                         0.125000       0.000000
                                                         0.221407       0.067632
                                                         0.856285       1.618673
                                                         3.472802       2.948693
                                                        20.861065       8.982306
                          1       5    4dxz              0.070000       0.000000
                                                         0.125000       0.000000
                                                         0.221407       0.067632
                                                         0.856285       1.618673
                                                         3.472802       2.948693
                                                        20.861065       8.982306
                          1       5    4dy2              0.070000       0.000000
                                                         0.125000       0.000000
                                                         0.221407       0.039048
                                                         0.856285       0.934541
                                                         3.472802       1.702429
                                                        20.861065       5.185937
                          1       5    4dyz              0.070000       0.000000
                                                         0.125000       0.000000
                                                         0.221407       0.067632
                                                         0.856285       1.618673
                                                         3.472802       2.948693
                                                        20.861065       8.982306
                          1       5    4dz2              0.070000       0.000000
                                                         0.125000       0.000000
                                                         0.221407       0.039048
                                                         0.856285       0.934541
                                                         3.472802       1.702429
                                                        20.861065       5.185937

                          1       6    5dx2              0.070000      -0.019875
                                                         0.125000       0.012077
                                                         0.221407       0.030471
                                                         0.856285       0.359897
                                                         3.472802       0.000000
                                                        20.861065       0.000000
                          1       6    5dxy              0.070000      -0.034425
                                                         0.125000       0.020917
                                                         0.221407       0.052778
                                                         0.856285       0.623360
                                                         3.472802       0.000000
                                                        20.861065       0.000000
                          1       6    5dxz              0.070000      -0.034425
                                                         0.125000       0.020917
                                                         0.221407       0.052778
                                                         0.856285       0.623360
                                                         3.472802       0.000000
                                                        20.861065       0.000000
                          1       6    5dy2              0.070000      -0.019875
                                                         0.125000       0.012077
                                                         0.221407       0.030471
                                                         0.856285       0.359897
                                                         3.472802       0.000000
                                                        20.861065       0.000000
                          1       6    5dyz              0.070000      -0.034425
                                                         0.125000       0.020917
                                                         0.221407       0.052778
                                                         0.856285       0.623360
                                                         3.472802       0.000000
                                                        20.861065       0.000000
                          1       6    5dz2              0.070000      -0.019875
                                                         0.125000       0.012077
                                                         0.221407       0.030471
                                                         0.856285       0.359897
                                                         3.472802       0.000000
                                                        20.861065       0.000000

                          1       7    5fx3              0.070000       0.002760
                                                         0.125000      -0.012440
                                                         0.221407       0.037019
                                                         0.856285       0.741414
                                                         3.472802       0.000000
                                                        20.861065       0.000000
                          1       7    5fx2y             0.070000       0.006171
                                                         0.125000      -0.027816
                                                         0.221407       0.082776
                                                         0.856285       1.657852
                                                         3.472802       0.000000
                                                        20.861065       0.000000
                          1       7    5fx2z             0.070000       0.006171
                                                         0.125000      -0.027816
                                                         0.221407       0.082776
                                                         0.856285       1.657852
                                                         3.472802       0.000000
                                                        20.861065       0.000000
                          1       7    5fxy2             0.070000       0.006171
                                                         0.125000      -0.027816
                                                         0.221407       0.082776
                                                         0.856285       1.657852
                                                         3.472802       0.000000
                                                        20.861065       0.000000
                          1       7    5fxyz             0.070000       0.010688
                                                         0.125000      -0.048178
                                                         0.221407       0.143372
                                                         0.856285       2.871484
                                                         3.472802       0.000000
                                                        20.861065       0.000000
                          1       7    5fxz2             0.070000       0.006171
                                                         0.125000      -0.027816
                                                         0.221407       0.082776
                                                         0.856285       1.657852
                                                         3.472802       0.000000
                                                        20.861065       0.000000
                          1       7    5fy3              0.070000       0.002760
                                                         0.125000      -0.012440
                                                         0.221407       0.037019
                                                         0.856285       0.741414
                                                         3.472802       0.000000
                                                        20.861065       0.000000
                          1       7    5fy2z             0.070000       0.006171
                                                         0.125000      -0.027816
                                                         0.221407       0.082776
                                                         0.856285       1.657852
                                                         3.472802       0.000000
                                                        20.861065       0.000000
                          1       7    5fyz2             0.070000       0.006171
                                                         0.125000      -0.027816
                                                         0.221407       0.082776
                                                         0.856285       1.657852
                                                         3.472802       0.000000
                                                        20.861065       0.000000
                          1       7    5fz3              0.070000       0.002760
                                                         0.125000      -0.012440
                                                         0.221407       0.037019
                                                         0.856285       0.741414
                                                         3.472802       0.000000
                                                        20.861065       0.000000

                          2       1    1s             2894.857604      -3.769245
                                                       435.720063      -2.636442
                                                        98.526357      -4.319870
                                                        25.521650      -4.228063
                                                         7.740335      -1.399856
                                                         1.290275       0.072688
                                                         0.396917       0.019743

                          2       2    2s             2894.857604      -3.432540
                                                       435.720063       0.213630
                                                        98.526357       1.667139
                                                        25.521650       0.530933
                                                         7.740335       0.179709
                                                         1.290275       0.499593
                                                         0.396917       0.147663

                          2       3    3s             2894.857604      83.752734
                                                       435.720063     -10.330104
                                                        98.526357      -1.488736
                                                        25.521650       0.183363
                                                         7.740335      -0.025706
                                                         1.290275      -0.932260
                                                         0.396917       0.545073

     RI Auxiliary Basis Set             RI_aug-DZVP-MOLOPT-ae_N_RI_061_s_p_d_f_g

       Number of orbital shell sets:                                          17
       Number of orbital shells:                                              17
       Number of primitive Cartesian functions:                               17
       Number of Cartesian basis functions:                                   79
       Number of spherical basis functions:                                   61
       Norm type:                                                              2

       Normalised Cartesian orbitals:

                        Set   Shell   Orbital            Exponent    Coefficient

                          1       1    1s                0.143846       0.166469

                          2       1    2s                0.583704       0.475943

                          3       1    8px               0.619372       0.783213
                          3       1    8py               0.619372       0.783213
                          3       1    8pz               0.619372       0.783213

                          4       1   11dx2              0.804045       1.123699
                          4       1   11dxy              0.804045       1.946303
                          4       1   11dxz              0.804045       1.946303
                          4       1   11dy2              0.804045       1.123699
                          4       1   11dyz              0.804045       1.946303
                          4       1   11dz2              0.804045       1.123699

                          5       1   14fx3              0.826327       0.958398
                          5       1   14fx2y             0.826327       2.143043
                          5       1   14fx2z             0.826327       2.143043
                          5       1   14fxy2             0.826327       2.143043
                          5       1   14fxyz             0.826327       3.711859
                          5       1   14fxz2             0.826327       2.143043
                          5       1   14fy3              0.826327       0.958398
                          5       1   14fy2z             0.826327       2.143043
                          5       1   14fyz2             0.826327       2.143043
                          5       1   14fz3              0.826327       0.958398

                          6       1   17gx4              1.231259       1.971950
                          6       1   17gx3y             1.231259       5.217289
                          6       1   17gx3z             1.231259       5.217289
                          6       1   17gx2y2            1.231259       6.735491
                          6       1   17gx2yz            1.231259      11.666212
                          6       1   17gx2z2            1.231259       6.735491
                          6       1   17gxy3             1.231259       5.217289
                          6       1   17gxy2z            1.231259      11.666212
                          6       1   17gxyz2            1.231259      11.666212
                          6       1   17gxz3             1.231259       5.217289
                          6       1   17gy4              1.231259       1.971950
                          6       1   17gy3z             1.231259       5.217289
                          6       1   17gy2z2            1.231259       6.735491
                          6       1   17gyz3             1.231259       5.217289
                          6       1   17gz4              1.231259       1.971950

                          7       1    9px               2.110521       3.625994
                          7       1    9py               2.110521       3.625994
                          7       1    9pz               2.110521       3.625994

                          8       1    3s                2.368585       1.360745

                          9       1   12dx2              2.394936       7.588813
                          9       1   12dxy              2.394936      13.144209
                          9       1   12dxz              2.394936      13.144209
                          9       1   12dy2              2.394936       7.588813
                          9       1   12dyz              2.394936      13.144209
                          9       1   12dz2              2.394936       7.588813

                         10       1   15fx3              2.577085      12.387796
                         10       1   15fx2y             2.577085      27.699954
                         10       1   15fx2z             2.577085      27.699954
                         10       1   15fxy2             2.577085      27.699954
                         10       1   15fxyz             2.577085      47.977728
                         10       1   15fxz2             2.577085      27.699954
                         10       1   15fy3              2.577085      12.387796
                         10       1   15fy2z             2.577085      27.699954
                         10       1   15fyz2             2.577085      27.699954
                         10       1   15fz3              2.577085      12.387796

                         11       1    4s                9.611413       3.890456

                         12       1   16fx3             14.822709     634.660606
                         12       1   16fx2y            14.822709    1419.144258
                         12       1   16fx2z            14.822709    1419.144258
                         12       1   16fxy2            14.822709    1419.144258
                         12       1   16fxyz            14.822709    2458.029959
                         12       1   16fxz2            14.822709    1419.144258
                         12       1   16fy3             14.822709     634.660606
                         12       1   16fy2z            14.822709    1419.144258
                         12       1   16fyz2            14.822709    1419.144258
                         12       1   16fz3             14.822709     634.660606

                         13       1   13dx2             15.980047     210.218556
                         13       1   13dxy             15.980047     364.109219
                         13       1   13dxz             15.980047     364.109219
                         13       1   13dy2             15.980047     210.218556
                         13       1   13dyz             15.980047     364.109219
                         13       1   13dz2             15.980047     210.218556

                         14       1    5s               39.001754      11.123032

                         15       1   10px              42.224379     153.424309
                         15       1   10py              42.224379     153.424309
                         15       1   10pz              42.224379     153.424309

                         16       1    6s              158.263564      31.801368

                         17       1    7s              642.210977      90.921876

       Atomic covalent radius [Angstrom]:                                  0.720

       Atomic van der Waals radius [Angstrom]:                             1.470

     The atoms of this atomic kind are PAW atoms (GAPW):
       Hard Gaussian function radius:                                      1.512
       Rho0 radius:                                                        1.512
       Maximum GTO radius used for PAW projector construction:            24.566

     GAPW Soft Basis Set                                 aug-DZVP-MOLOPT-ae_soft

       Number of orbital shell sets:                                           2
       Number of orbital shells:                                              10
       Number of primitive Cartesian functions:                                7
       Number of Cartesian basis functions:                                   35
       Number of spherical basis functions:                                   30
       Norm type:                                                              2

       Normalised Cartesian orbitals:

                        Set   Shell   Orbital            Exponent    Coefficient

                          1       1    2s                0.070000       0.070494
                                                         0.125000       0.044836
                                                         0.221407      -0.001109
                                                         0.856285      -0.013595
                                                         3.472802       0.000000

                          1       2    3px               0.070000       0.000000
                                                         0.125000       0.000000
                                                         0.221407      -0.026524
                                                         0.856285      -0.734779
                                                         3.472802      -2.702296
                          1       2    3py               0.070000       0.000000
                                                         0.125000       0.000000
                                                         0.221407      -0.026524
                                                         0.856285      -0.734779
                                                         3.472802      -2.702296
                          1       2    3pz               0.070000       0.000000
                                                         0.125000       0.000000
                                                         0.221407      -0.026524
                                                         0.856285      -0.734779
                                                         3.472802      -2.702296

                          1       3    4px               0.070000       0.000000
                                                         0.125000       0.000000
                                                         0.221407       0.239225
                                                         0.856285      -0.239059
                                                         3.472802      -0.066644
                          1       3    4py               0.070000       0.000000
                                                         0.125000       0.000000
                                                         0.221407       0.239225
                                                         0.856285      -0.239059
                                                         3.472802      -0.066644
                          1       3    4pz               0.070000       0.000000
                                                         0.125000       0.000000
                                                         0.221407       0.239225
                                                         0.856285      -0.239059
                                                         3.472802      -0.066644

                          1       4    5px               0.070000       0.060900
                                                         0.125000      -0.021205
                                                         0.221407      -0.004399
                                                         0.856285       0.017647
                                                         3.472802       0.000000
                          1       4    5py               0.070000       0.060900
                                                         0.125000      -0.021205
                                                         0.221407      -0.004399
                                                         0.856285       0.017647
                                                         3.472802       0.000000
                          1       4    5pz               0.070000       0.060900
                                                         0.125000      -0.021205
                                                         0.221407      -0.004399
                                                         0.856285       0.017647
                                                         3.472802       0.000000

                          1       5    4dx2              0.070000       0.000000
                                                         0.125000       0.000000
                                                         0.221407       0.039048
                                                         0.856285       0.934541
                                                         3.472802       1.702429
                          1       5    4dxy              0.070000       0.000000
                                                         0.125000       0.000000
                                                         0.221407       0.067632
                                                         0.856285       1.618673
                                                         3.472802       2.948693
                          1       5    4dxz              0.070000       0.000000
                                                         0.125000       0.000000
                                                         0.221407       0.067632
                                                         0.856285       1.618673
                                                         3.472802       2.948693
                          1       5    4dy2              0.070000       0.000000
                                                         0.125000       0.000000
                                                         0.221407       0.039048
                                                         0.856285       0.934541
                                                         3.472802       1.702429
                          1       5    4dyz              0.070000       0.000000
                                                         0.125000       0.000000
                                                         0.221407       0.067632
                                                         0.856285       1.618673
                                                         3.472802       2.948693
                          1       5    4dz2              0.070000       0.000000
                                                         0.125000       0.000000
                                                         0.221407       0.039048
                                                         0.856285       0.934541
                                                         3.472802       1.702429

                          1       6    5dx2              0.070000      -0.019875
                                                         0.125000       0.012077
                                                         0.221407       0.030471
                                                         0.856285       0.359897
                                                         3.472802       0.000000
                          1       6    5dxy              0.070000      -0.034425
                                                         0.125000       0.020917
                                                         0.221407       0.052778
                                                         0.856285       0.623360
                                                         3.472802       0.000000
                          1       6    5dxz              0.070000      -0.034425
                                                         0.125000       0.020917
                                                         0.221407       0.052778
                                                         0.856285       0.623360
                                                         3.472802       0.000000
                          1       6    5dy2              0.070000      -0.019875
                                                         0.125000       0.012077
                                                         0.221407       0.030471
                                                         0.856285       0.359897
                                                         3.472802       0.000000
                          1       6    5dyz              0.070000      -0.034425
                                                         0.125000       0.020917
                                                         0.221407       0.052778
                                                         0.856285       0.623360
                                                         3.472802       0.000000
                          1       6    5dz2              0.070000      -0.019875
                                                         0.125000       0.012077
                                                         0.221407       0.030471
                                                         0.856285       0.359897
                                                         3.472802       0.000000

                          1       7    5fx3              0.070000       0.002760
                                                         0.125000      -0.012440
                                                         0.221407       0.037019
                                                         0.856285       0.741414
                                                         3.472802       0.000000
                          1       7    5fx2y             0.070000       0.006171
                                                         0.125000      -0.027816
                                                         0.221407       0.082776
                                                         0.856285       1.657852
                                                         3.472802       0.000000
                          1       7    5fx2z             0.070000       0.006171
                                                         0.125000      -0.027816
                                                         0.221407       0.082776
                                                         0.856285       1.657852
                                                         3.472802       0.000000
                          1       7    5fxy2             0.070000       0.006171
                                                         0.125000      -0.027816
                                                         0.221407       0.082776
                                                         0.856285       1.657852
                                                         3.472802       0.000000
                          1       7    5fxyz             0.070000       0.010688
                                                         0.125000      -0.048178
                                                         0.221407       0.143372
                                                         0.856285       2.871484
                                                         3.472802       0.000000
                          1       7    5fxz2             0.070000       0.006171
                                                         0.125000      -0.027816
                                                         0.221407       0.082776
                                                         0.856285       1.657852
                                                         3.472802       0.000000
                          1       7    5fy3              0.070000       0.002760
                                                         0.125000      -0.012440
                                                         0.221407       0.037019
                                                         0.856285       0.741414
                                                         3.472802       0.000000
                          1       7    5fy2z             0.070000       0.006171
                                                         0.125000      -0.027816
                                                         0.221407       0.082776
                                                         0.856285       1.657852
                                                         3.472802       0.000000
                          1       7    5fyz2             0.070000       0.006171
                                                         0.125000      -0.027816
                                                         0.221407       0.082776
                                                         0.856285       1.657852
                                                         3.472802       0.000000
                          1       7    5fz3              0.070000       0.002760
                                                         0.125000      -0.012440
                                                         0.221407       0.037019
                                                         0.856285       0.741414
                                                         3.472802       0.000000

                          2       1    1s                1.290275       0.072688
                                                         0.396917       0.019743

                          2       2    2s                1.290275       0.499593
                                                         0.396917       0.147663

                          2       3    3s                1.290275      -0.932260
                                                         0.396917       0.545073

     AE Potential information for                                            ALL

       Description:                                       All-electron potential
                                          Krack, Parrinello, PCCP 2, 2105 (2000)

       Gaussian exponent of the core charge distribution:              10.470541
       Electronic configuration (s p d ...):                           4   5   0

  2. Atomic kind: O                                     Number of atoms:       1

     Orbital Basis Set                                        aug-DZVP-MOLOPT-ae

       Number of orbital shell sets:                                           2
       Number of orbital shells:                                              10
       Number of primitive Cartesian functions:                               12
       Number of Cartesian basis functions:                                   35
       Number of spherical basis functions:                                   30
       Norm type:                                                              2

       Normalised Cartesian orbitals:

                        Set   Shell   Orbital            Exponent    Coefficient

                          1       1    2s                0.090000       0.120905
                                                         0.191936      -0.019521
                                                         0.750068       0.059582
                                                         2.907977       0.000000
                                                        16.368686       0.000000

                          1       2    3px               0.090000       0.000000
                                                         0.191936       0.023686
                                                         0.750068       0.626550
                                                         2.907977       2.082711
                                                        16.368686       3.596544
                          1       2    3py               0.090000       0.000000
                                                         0.191936       0.023686
                                                         0.750068       0.626550
                                                         2.907977       2.082711
                                                        16.368686       3.596544
                          1       2    3pz               0.090000       0.000000
                                                         0.191936       0.023686
                                                         0.750068       0.626550
                                                         2.907977       2.082711
                                                        16.368686       3.596544

                          1       3    4px               0.090000       0.000000
                                                         0.191936       0.196557
                                                         0.750068      -0.157257
                                                         2.907977      -0.566756
                                                        16.368686      -1.323495
                          1       3    4py               0.090000       0.000000
                                                         0.191936       0.196557
                                                         0.750068      -0.157257
                                                         2.907977      -0.566756
                                                        16.368686      -1.323495
                          1       3    4pz               0.090000       0.000000
                                                         0.191936       0.196557
                                                         0.750068      -0.157257
                                                         2.907977      -0.566756
                                                        16.368686      -1.323495

                          1       4    5px               0.090000       0.020606
                                                         0.191936       0.124186
                                                         0.750068       0.098287
                                                         2.907977       0.000000
                                                        16.368686       0.000000
                          1       4    5py               0.090000       0.020606
                                                         0.191936       0.124186
                                                         0.750068       0.098287
                                                         2.907977       0.000000
                                                        16.368686       0.000000
                          1       4    5pz               0.090000       0.020606
                                                         0.191936       0.124186
                                                         0.750068       0.098287
                                                         2.907977       0.000000
                                                        16.368686       0.000000

                          1       5    4dx2              0.090000       0.000000
                                                         0.191936       0.030414
                                                         0.750068       0.724129
                                                         2.907977       1.586204
                                                        16.368686       1.487256
                          1       5    4dxy              0.090000       0.000000
                                                         0.191936       0.052678
                                                         0.750068       1.254227
                                                         2.907977       2.747386
                                                        16.368686       2.576002
                          1       5    4dxz              0.090000       0.000000
                                                         0.191936       0.052678
                                                         0.750068       1.254227
                                                         2.907977       2.747386
                                                        16.368686       2.576002
                          1       5    4dy2              0.090000       0.000000
                                                         0.191936       0.030414
                                                         0.750068       0.724129
                                                         2.907977       1.586204
                                                        16.368686       1.487256
                          1       5    4dyz              0.090000       0.000000
                                                         0.191936       0.052678
                                                         0.750068       1.254227
                                                         2.907977       2.747386
                                                        16.368686       2.576002
                          1       5    4dz2              0.090000       0.000000
                                                         0.191936       0.030414
                                                         0.750068       0.724129
                                                         2.907977       1.586204
                                                        16.368686       1.487256

                          1       6    5dx2              0.090000      -0.010181
                                                         0.191936       0.018957
                                                         0.750068       0.933882
                                                         2.907977       0.008471
                                                        16.368686       0.000000
                          1       6    5dxy              0.090000      -0.017634
                                                         0.191936       0.032834
                                                         0.750068       1.617531
                                                         2.907977       0.014671
                                                        16.368686       0.000000
                          1       6    5dxz              0.090000      -0.017634
                                                         0.191936       0.032834
                                                         0.750068       1.617531
                                                         2.907977       0.014671
                                                        16.368686       0.000000
                          1       6    5dy2              0.090000      -0.010181
                                                         0.191936       0.018957
                                                         0.750068       0.933882
                                                         2.907977       0.008471
                                                        16.368686       0.000000
                          1       6    5dyz              0.090000      -0.017634
                                                         0.191936       0.032834
                                                         0.750068       1.617531
                                                         2.907977       0.014671
                                                        16.368686       0.000000
                          1       6    5dz2              0.090000      -0.010181
                                                         0.191936       0.018957
                                                         0.750068       0.933882
                                                         2.907977       0.008471
                                                        16.368686       0.000000

                          1       7    5fx3              0.090000       0.003073
                                                         0.191936       0.017866
                                                         0.750068       0.208981
                                                         2.907977      -1.809714
                                                        16.368686       0.000000
                          1       7    5fx2y             0.090000       0.006871
                                                         0.191936       0.039950
                                                         0.750068       0.467295
                                                         2.907977      -4.046643
                                                        16.368686       0.000000
                          1       7    5fx2z             0.090000       0.006871
                                                         0.191936       0.039950
                                                         0.750068       0.467295
                                                         2.907977      -4.046643
                                                        16.368686       0.000000
                          1       7    5fxy2             0.090000       0.006871
                                                         0.191936       0.039950
                                                         0.750068       0.467295
                                                         2.907977      -4.046643
                                                        16.368686       0.000000
                          1       7    5fxyz             0.090000       0.011901
                                                         0.191936       0.069196
                                                         0.750068       0.809378
                                                         2.907977      -7.008992
                                                        16.368686       0.000000
                          1       7    5fxz2             0.090000       0.006871
                                                         0.191936       0.039950
                                                         0.750068       0.467295
                                                         2.907977      -4.046643
                                                        16.368686       0.000000
                          1       7    5fy3              0.090000       0.003073
                                                         0.191936       0.017866
                                                         0.750068       0.208981
                                                         2.907977      -1.809714
                                                        16.368686       0.000000
                          1       7    5fy2z             0.090000       0.006871
                                                         0.191936       0.039950
                                                         0.750068       0.467295
                                                         2.907977      -4.046643
                                                        16.368686       0.000000
                          1       7    5fyz2             0.090000       0.006871
                                                         0.191936       0.039950
                                                         0.750068       0.467295
                                                         2.907977      -4.046643
                                                        16.368686       0.000000
                          1       7    5fz3              0.090000       0.003073
                                                         0.191936       0.017866
                                                         0.750068       0.208981
                                                         2.907977      -1.809714
                                                        16.368686       0.000000

                          2       1    1s                0.293338      -0.001581
                                                         0.941883       0.076823
                                                         5.946538      -1.128731
                                                        19.692604      -3.542509
                                                        76.928143      -3.538410
                                                       340.903325      -2.616043
                                                      2266.118827      -1.088852

                          2       2    2s                0.293338       0.124568
                                                         0.941883       0.386056
                                                         5.946538       0.132815
                                                        19.692604       0.350657
                                                        76.928143       1.294240
                                                       340.903325      -0.343055
                                                      2266.118827       0.730749

                          2       3    3s                0.293338       0.411906
                                                         0.941883      -0.735854
                                                         5.946538      -0.324434
                                                        19.692604      -0.580898
                                                        76.928143      -3.484318
                                                       340.903325       2.878168
                                                      2266.118827      -6.417666

     RI Auxiliary Basis Set             RI_aug-DZVP-MOLOPT-ae_N_RI_072_s_p_d_f_g

       Number of orbital shell sets:                                          20
       Number of orbital shells:                                              20
       Number of primitive Cartesian functions:                               20
       Number of Cartesian basis functions:                                   91
       Number of spherical basis functions:                                   72
       Norm type:                                                              2

       Normalised Cartesian orbitals:

                        Set   Shell   Orbital            Exponent    Coefficient

                          1       1    1s                0.149663       0.171493

                          2       1   13dx2              0.154035       0.062337
                          2       1   13dxy              0.154035       0.107971
                          2       1   13dxz              0.154035       0.107971
                          2       1   13dy2              0.154035       0.062337
                          2       1   13dyz              0.154035       0.107971
                          2       1   13dz2              0.154035       0.062337

                          3       1    8px               0.183646       0.171363
                          3       1    8py               0.183646       0.171363
                          3       1    8pz               0.183646       0.171363

                          4       1   17fx3              0.375009       0.162012
                          4       1   17fx2y             0.375009       0.362270
                          4       1   17fx2z             0.375009       0.362270
                          4       1   17fxy2             0.375009       0.362270
                          4       1   17fxyz             0.375009       0.627470
                          4       1   17fxz2             0.375009       0.362270
                          4       1   17fy3              0.375009       0.162012
                          4       1   17fy2z             0.375009       0.362270
                          4       1   17fyz2             0.375009       0.362270
                          4       1   17fz3              0.375009       0.162012

                          5       1    2s                0.391216       0.352551

                          6       1   14dx2              0.576365       0.627525
                          6       1   14dxy              0.576365       1.086905
                          6       1   14dxz              0.576365       1.086905
                          6       1   14dy2              0.576365       0.627525
                          6       1   14dyz              0.576365       1.086905
                          6       1   14dz2              0.576365       0.627525

                          7       1    9px               0.681723       0.882978
                          7       1    9py               0.681723       0.882978
                          7       1    9pz               0.681723       0.882978

                          8       1   20gx4              0.710982       0.435559
                          8       1   20gx3y             0.710982       1.152381
                          8       1   20gx3z             0.710982       1.152381
                          8       1   20gx2y2            0.710982       1.487718
                          8       1   20gx2yz            0.710982       2.576803
                          8       1   20gx2z2            0.710982       1.487718
                          8       1   20gxy3             0.710982       1.152381
                          8       1   20gxy2z            0.710982       2.576803
                          8       1   20gxyz2            0.710982       2.576803
                          8       1   20gxz3             0.710982       1.152381
                          8       1   20gy4              0.710982       0.435559
                          8       1   20gy3z             0.710982       1.152381
                          8       1   20gy2z2            0.710982       1.487718
                          8       1   20gyz3             0.710982       1.152381
                          8       1   20gz4              0.710982       0.435559

                          9       1   10px               1.077483       1.564779
                          9       1   10py               1.077483       1.564779
                          9       1   10pz               1.077483       1.564779

                         10       1    3s                1.173203       0.803415

                         11       1   15dx2              1.274843       2.517437
                         11       1   15dxy              1.274843       4.360328
                         11       1   15dxz              1.274843       4.360328
                         11       1   15dy2              1.274843       2.517437
                         11       1   15dyz              1.274843       4.360328
                         11       1   15dz2              1.274843       2.517437

                         12       1   18fx3              1.337264       2.831020
                         12       1   18fx2y             1.337264       6.330353
                         12       1   18fx2z             1.337264       6.330353
                         12       1   18fxy2             1.337264       6.330353
                         12       1   18fxyz             1.337264      10.964493
                         12       1   18fxz2             1.337264       6.330353
                         12       1   18fy3              1.337264       2.831020
                         12       1   18fy2z             1.337264       6.330353
                         12       1   18fyz2             1.337264       6.330353
                         12       1   18fz3              1.337264       2.831020

                         13       1    4s                3.143421       1.682527

                         14       1   11px               3.601750       7.072649
                         14       1   11py               3.601750       7.072649
                         14       1   11pz               3.601750       7.072649

                         15       1   16dx2              4.763207      25.277465
                         15       1   16dxy              4.763207      43.781854
                         15       1   16dxz              4.763207      43.781854
                         15       1   16dy2              4.763207      25.277465
                         15       1   16dyz              4.763207      43.781854
                         15       1   16dz2              4.763207      25.277465

                         16       1   19fx3              5.064165      56.636583
                         16       1   19fx2y             5.064165     126.643249
                         16       1   19fx2z             5.064165     126.643249
                         16       1   19fxy2             5.064165     126.643249
                         16       1   19fxyz             5.064165     219.352541
                         16       1   19fxz2             5.064165     126.643249
                         16       1   19fy3              5.064165      56.636583
                         16       1   19fy2z             5.064165     126.643249
                         16       1   19fyz2             5.064165     126.643249
                         16       1   19fz3              5.064165      56.636583

                         17       1    5s               12.516691       4.742717

                         18       1   12px              19.115095      56.971896
                         18       1   12py              19.115095      56.971896
                         18       1   12pz              19.115095      56.971896

                         19       1    6s               46.942700      12.781627

                         20       1    7s              160.163322      32.087242

       Atomic covalent radius [Angstrom]:                                  0.730

       Atomic van der Waals radius [Angstrom]:                             1.520

     The atoms of this atomic kind are PAW atoms (GAPW):
       Hard Gaussian function radius:                                      1.512
       Rho0 radius:                                                        1.512
       Maximum GTO radius used for PAW projector construction:            24.566

     GAPW Soft Basis Set                                 aug-DZVP-MOLOPT-ae_soft

       Number of orbital shell sets:                                           2
       Number of orbital shells:                                              10
       Number of primitive Cartesian functions:                                6
       Number of Cartesian basis functions:                                   35
       Number of spherical basis functions:                                   30
       Norm type:                                                              2

       Normalised Cartesian orbitals:

                        Set   Shell   Orbital            Exponent    Coefficient

                          1       1    2s                0.090000       0.120905
                                                         0.191936      -0.019521
                                                         0.750068       0.059582
                                                         2.907977       0.000000

                          1       2    3px               0.090000       0.000000
                                                         0.191936       0.023686
                                                         0.750068       0.626550
                                                         2.907977       2.082711
                          1       2    3py               0.090000       0.000000
                                                         0.191936       0.023686
                                                         0.750068       0.626550
                                                         2.907977       2.082711
                          1       2    3pz               0.090000       0.000000
                                                         0.191936       0.023686
                                                         0.750068       0.626550
                                                         2.907977       2.082711

                          1       3    4px               0.090000       0.000000
                                                         0.191936       0.196557
                                                         0.750068      -0.157257
                                                         2.907977      -0.566756
                          1       3    4py               0.090000       0.000000
                                                         0.191936       0.196557
                                                         0.750068      -0.157257
                                                         2.907977      -0.566756
                          1       3    4pz               0.090000       0.000000
                                                         0.191936       0.196557
                                                         0.750068      -0.157257
                                                         2.907977      -0.566756

                          1       4    5px               0.090000       0.020606
                                                         0.191936       0.124186
                                                         0.750068       0.098287
                                                         2.907977       0.000000
                          1       4    5py               0.090000       0.020606
                                                         0.191936       0.124186
                                                         0.750068       0.098287
                                                         2.907977       0.000000
                          1       4    5pz               0.090000       0.020606
                                                         0.191936       0.124186
                                                         0.750068       0.098287
                                                         2.907977       0.000000

                          1       5    4dx2              0.090000       0.000000
                                                         0.191936       0.030414
                                                         0.750068       0.724129
                                                         2.907977       1.586204
                          1       5    4dxy              0.090000       0.000000
                                                         0.191936       0.052678
                                                         0.750068       1.254227
                                                         2.907977       2.747386
                          1       5    4dxz              0.090000       0.000000
                                                         0.191936       0.052678
                                                         0.750068       1.254227
                                                         2.907977       2.747386
                          1       5    4dy2              0.090000       0.000000
                                                         0.191936       0.030414
                                                         0.750068       0.724129
                                                         2.907977       1.586204
                          1       5    4dyz              0.090000       0.000000
                                                         0.191936       0.052678
                                                         0.750068       1.254227
                                                         2.907977       2.747386
                          1       5    4dz2              0.090000       0.000000
                                                         0.191936       0.030414
                                                         0.750068       0.724129
                                                         2.907977       1.586204

                          1       6    5dx2              0.090000      -0.010181
                                                         0.191936       0.018957
                                                         0.750068       0.933882
                                                         2.907977       0.008471
                          1       6    5dxy              0.090000      -0.017634
                                                         0.191936       0.032834
                                                         0.750068       1.617531
                                                         2.907977       0.014671
                          1       6    5dxz              0.090000      -0.017634
                                                         0.191936       0.032834
                                                         0.750068       1.617531
                                                         2.907977       0.014671
                          1       6    5dy2              0.090000      -0.010181
                                                         0.191936       0.018957
                                                         0.750068       0.933882
                                                         2.907977       0.008471
                          1       6    5dyz              0.090000      -0.017634
                                                         0.191936       0.032834
                                                         0.750068       1.617531
                                                         2.907977       0.014671
                          1       6    5dz2              0.090000      -0.010181
                                                         0.191936       0.018957
                                                         0.750068       0.933882
                                                         2.907977       0.008471

                          1       7    5fx3              0.090000       0.003073
                                                         0.191936       0.017866
                                                         0.750068       0.208981
                                                         2.907977      -1.809714
                          1       7    5fx2y             0.090000       0.006871
                                                         0.191936       0.039950
                                                         0.750068       0.467295
                                                         2.907977      -4.046643
                          1       7    5fx2z             0.090000       0.006871
                                                         0.191936       0.039950
                                                         0.750068       0.467295
                                                         2.907977      -4.046643
                          1       7    5fxy2             0.090000       0.006871
                                                         0.191936       0.039950
                                                         0.750068       0.467295
                                                         2.907977      -4.046643
                          1       7    5fxyz             0.090000       0.011901
                                                         0.191936       0.069196
                                                         0.750068       0.809378
                                                         2.907977      -7.008992
                          1       7    5fxz2             0.090000       0.006871
                                                         0.191936       0.039950
                                                         0.750068       0.467295
                                                         2.907977      -4.046643
                          1       7    5fy3              0.090000       0.003073
                                                         0.191936       0.017866
                                                         0.750068       0.208981
                                                         2.907977      -1.809714
                          1       7    5fy2z             0.090000       0.006871
                                                         0.191936       0.039950
                                                         0.750068       0.467295
                                                         2.907977      -4.046643
                          1       7    5fyz2             0.090000       0.006871
                                                         0.191936       0.039950
                                                         0.750068       0.467295
                                                         2.907977      -4.046643
                          1       7    5fz3              0.090000       0.003073
                                                         0.191936       0.017866
                                                         0.750068       0.208981
                                                         2.907977      -1.809714

                          2       1    1s                0.293338      -0.001581
                                                         0.941883       0.076823

                          2       2    2s                0.293338       0.124568
                                                         0.941883       0.386056

                          2       3    3s                0.293338       0.411906
                                                         0.941883      -0.735854

     AE Potential information for                                            ALL

       Description:                                       All-electron potential
                                          Krack, Parrinello, PCCP 2, 2105 (2000)

       Gaussian exponent of the core charge distribution:               8.154466
       Electronic configuration (s p d ...):                           4   4   0

  3. Atomic kind: N                                     Number of atoms:       1

     Orbital Basis Set                                        aug-DZVP-MOLOPT-ae

       Number of orbital shell sets:                                           2
       Number of orbital shells:                                              10
       Number of primitive Cartesian functions:                               12
       Number of Cartesian basis functions:                                   35
       Number of spherical basis functions:                                   30
       Norm type:                                                              2

       Normalised Cartesian orbitals:

                        Set   Shell   Orbital            Exponent    Coefficient

                          1       1    2s                0.060000      -0.096639
                                                         0.166384       0.037538
                                                         0.634073      -0.055669
                                                         2.325354       0.000000
                                                        12.268174       0.000000

                          1       2    3px               0.060000       0.000000
                                                         0.166384      -0.031930
                                                         0.634073      -0.492962
                                                         2.325354      -1.380142
                                                        12.268174      -2.349358
                          1       2    3py               0.060000       0.000000
                                                         0.166384      -0.031930
                                                         0.634073      -0.492962
                                                         2.325354      -1.380142
                                                        12.268174      -2.349358
                          1       2    3pz               0.060000       0.000000
                                                         0.166384      -0.031930
                                                         0.634073      -0.492962
                                                         2.325354      -1.380142
                                                        12.268174      -2.349358

                          1       3    4px               0.060000       0.000000
                                                         0.166384       0.169694
                                                         0.634073      -0.220766
                                                         2.325354      -0.809234
                                                        12.268174      -0.998521
                          1       3    4py               0.060000       0.000000
                                                         0.166384       0.169694
                                                         0.634073      -0.220766
                                                         2.325354      -0.809234
                                                        12.268174      -0.998521
                          1       3    4pz               0.060000       0.000000
                                                         0.166384       0.169694
                                                         0.634073      -0.220766
                                                         2.325354      -0.809234
                                                        12.268174      -0.998521

                          1       4    5px               0.060000       0.028594
                                                         0.166384       0.063224
                                                         0.634073      -0.046183
                                                         2.325354       0.000000
                                                        12.268174       0.000000
                          1       4    5py               0.060000       0.028594
                                                         0.166384       0.063224
                                                         0.634073      -0.046183
                                                         2.325354       0.000000
                                                        12.268174       0.000000
                          1       4    5pz               0.060000       0.028594
                                                         0.166384       0.063224
                                                         0.634073      -0.046183
                                                         2.325354       0.000000
                                                        12.268174       0.000000

                          1       5    4dx2              0.060000       0.000000
                                                         0.166384       0.019402
                                                         0.634073       0.555487
                                                         2.325354       1.255926
                                                        12.268174      -0.426175
                          1       5    4dxy              0.060000       0.000000
                                                         0.166384       0.033606
                                                         0.634073       0.962132
                                                         2.325354       2.175327
                                                        12.268174      -0.738157
                          1       5    4dxz              0.060000       0.000000
                                                         0.166384       0.033606
                                                         0.634073       0.962132
                                                         2.325354       2.175327
                                                        12.268174      -0.738157
                          1       5    4dy2              0.060000       0.000000
                                                         0.166384       0.019402
                                                         0.634073       0.555487
                                                         2.325354       1.255926
                                                        12.268174      -0.426175
                          1       5    4dyz              0.060000       0.000000
                                                         0.166384       0.033606
                                                         0.634073       0.962132
                                                         2.325354       2.175327
                                                        12.268174      -0.738157
                          1       5    4dz2              0.060000       0.000000
                                                         0.166384       0.019402
                                                         0.634073       0.555487
                                                         2.325354       1.255926
                                                        12.268174      -0.426175

                          1       6    5dx2              0.060000      -0.008089
                                                         0.166384      -0.027907
                                                         0.634073      -0.057221
                                                         2.325354       0.000000
                                                        12.268174       0.000000
                          1       6    5dxy              0.060000      -0.014011
                                                         0.166384      -0.048336
                                                         0.634073      -0.099109
                                                         2.325354       0.000000
                                                        12.268174       0.000000
                          1       6    5dxz              0.060000      -0.014011
                                                         0.166384      -0.048336
                                                         0.634073      -0.099109
                                                         2.325354       0.000000
                                                        12.268174       0.000000
                          1       6    5dy2              0.060000      -0.008089
                                                         0.166384      -0.027907
                                                         0.634073      -0.057221
                                                         2.325354       0.000000
                                                        12.268174       0.000000
                          1       6    5dyz              0.060000      -0.014011
                                                         0.166384      -0.048336
                                                         0.634073      -0.099109
                                                         2.325354       0.000000
                                                        12.268174       0.000000
                          1       6    5dz2              0.060000      -0.008089
                                                         0.166384      -0.027907
                                                         0.634073      -0.057221
                                                         2.325354       0.000000
                                                        12.268174       0.000000

                          1       7    5fx3              0.060000       0.000067
                                                         0.166384       0.012645
                                                         0.634073       0.328269
                                                         2.325354       1.687172
                                                        12.268174       0.000000
                          1       7    5fx2y             0.060000       0.000150
                                                         0.166384       0.028275
                                                         0.634073       0.734031
                                                         2.325354       3.772631
                                                        12.268174       0.000000
                          1       7    5fx2z             0.060000       0.000150
                                                         0.166384       0.028275
                                                         0.634073       0.734031
                                                         2.325354       3.772631
                                                        12.268174       0.000000
                          1       7    5fxy2             0.060000       0.000150
                                                         0.166384       0.028275
                                                         0.634073       0.734031
                                                         2.325354       3.772631
                                                        12.268174       0.000000
                          1       7    5fxyz             0.060000       0.000260
                                                         0.166384       0.048973
                                                         0.634073       1.271379
                                                         2.325354       6.534389
                                                        12.268174       0.000000
                          1       7    5fxz2             0.060000       0.000150
                                                         0.166384       0.028275
                                                         0.634073       0.734031
                                                         2.325354       3.772631
                                                        12.268174       0.000000
                          1       7    5fy3              0.060000       0.000067
                                                         0.166384       0.012645
                                                         0.634073       0.328269
                                                         2.325354       1.687172
                                                        12.268174       0.000000
                          1       7    5fy2z             0.060000       0.000150
                                                         0.166384       0.028275
                                                         0.634073       0.734031
                                                         2.325354       3.772631
                                                        12.268174       0.000000
                          1       7    5fyz2             0.060000       0.000150
                                                         0.166384       0.028275
                                                         0.634073       0.734031
                                                         2.325354       3.772631
                                                        12.268174       0.000000
                          1       7    5fz3              0.060000       0.000067
                                                         0.166384       0.012645
                                                         0.634073       0.328269
                                                         2.325354       1.687172
                                                        12.268174       0.000000

                          2       1    1s                0.191012      -0.002582
                                                         0.666629       0.012902
                                                         4.403487      -0.858326
                                                        14.651380      -2.749170
                                                        57.692026      -2.958222
                                                       257.997554      -1.897300
                                                      1713.054433      -1.166486

                          2       2    2s                0.191012       0.079194
                                                         0.666629       0.351708
                                                         4.403487       0.009155
                                                        14.651380       0.000424
                                                        57.692026       0.772862
                                                       257.997554      -0.458166
                                                      1713.054433       0.520658

                          2       3    3s                0.191012       0.300064
                                                         0.666629      -0.436823
                                                         4.403487      -0.072962
                                                        14.651380      -0.095292
                                                        57.692026      -1.262420
                                                       257.997554       0.741400
                                                      1713.054433      -0.270364

     RI Auxiliary Basis Set             RI_aug-DZVP-MOLOPT-ae_N_RI_056_s_p_d_f_g

       Number of orbital shell sets:                                          16
       Number of orbital shells:                                              16
       Number of primitive Cartesian functions:                               16
       Number of Cartesian basis functions:                                   71
       Number of spherical basis functions:                                   56
       Norm type:                                                              2

       Normalised Cartesian orbitals:

                        Set   Shell   Orbital            Exponent    Coefficient

                          1       1    1s                0.294979       0.285268

                          2       1    7px               0.368800       0.409664
                          2       1    7py               0.368800       0.409664
                          2       1    7pz               0.368800       0.409664

                          3       1   14fx3              0.655502       0.569175
                          3       1   14fx2y             0.655502       1.272714
                          3       1   14fx2z             0.655502       1.272714
                          3       1   14fxy2             0.655502       1.272714
                          3       1   14fxyz             0.655502       2.204405
                          3       1   14fxz2             0.655502       1.272714
                          3       1   14fy3              0.655502       0.569175
                          3       1   14fy2z             0.655502       1.272714
                          3       1   14fyz2             0.655502       1.272714
                          3       1   14fz3              0.655502       0.569175

                          4       1   11dx2              0.675950       0.829393
                          4       1   11dxy              0.675950       1.436551
                          4       1   11dxz              0.675950       1.436551
                          4       1   11dy2              0.675950       0.829393
                          4       1   11dyz              0.675950       1.436551
                          4       1   11dz2              0.675950       0.829393

                          5       1    2s                0.778512       0.590689

                          6       1   12dx2              0.872768       1.297128
                          6       1   12dxy              0.872768       2.246691
                          6       1   12dxz              0.872768       2.246691
                          6       1   12dy2              0.872768       1.297128
                          6       1   12dyz              0.872768       2.246691
                          6       1   12dz2              0.872768       1.297128

                          7       1    8px               1.053799       1.521905
                          7       1    8py               1.053799       1.521905
                          7       1    8pz               1.053799       1.521905

                          8       1   16gx4              1.337175       2.474302
                          8       1   16gx3y             1.337175       6.546389
                          8       1   16gx3z             1.337175       6.546389
                          8       1   16gx2y2            1.337175       8.451352
                          8       1   16gx2yz            1.337175      14.638170
                          8       1   16gx2z2            1.337175       8.451352
                          8       1   16gxy3             1.337175       6.546389
                          8       1   16gxy2z            1.337175      14.638170
                          8       1   16gxyz2            1.337175      14.638170
                          8       1   16gxz3             1.337175       6.546389
                          8       1   16gy4              1.337175       2.474302
                          8       1   16gy3z             1.337175       6.546389
                          8       1   16gy2z2            1.337175       8.451352
                          8       1   16gyz3             1.337175       6.546389
                          8       1   16gz4              1.337175       2.474302

                          9       1   15fx3              2.326735       9.843169
                          9       1   15fx2y             2.326735      22.009994
                          9       1   15fx2z             2.326735      22.009994
                          9       1   15fxy2             2.326735      22.009994
                          9       1   15fxyz             2.326735      38.122428
                          9       1   15fxz2             2.326735      22.009994
                          9       1   15fy3              2.326735       9.843169
                          9       1   15fy2z             2.326735      22.009994
                          9       1   15fyz2             2.326735      22.009994
                          9       1   15fz3              2.326735       9.843169

                         10       1    3s                2.407718       1.377572

                         11       1    9px               3.914583       7.848686
                         11       1    9py               3.914583       7.848686
                         11       1    9pz               3.914583       7.848686

                         12       1   13dx2              4.400587      22.006604
                         12       1   13dxy              4.400587      38.116556
                         12       1   13dxz              4.400587      38.116556
                         12       1   13dy2              4.400587      22.006604
                         12       1   13dyz              4.400587      38.116556
                         12       1   13dz2              4.400587      22.006604

                         13       1    4s                9.062002       3.722444

                         14       1   10px              20.698980      62.932688
                         14       1   10py              20.698980      62.932688
                         14       1   10pz              20.698980      62.932688

                         15       1    5s               31.580332       9.494511

                         16       1    6s              106.882494      23.691362

       Atomic covalent radius [Angstrom]:                                  0.750

       Atomic van der Waals radius [Angstrom]:                             1.550

     The atoms of this atomic kind are PAW atoms (GAPW):
       Hard Gaussian function radius:                                      1.512
       Rho0 radius:                                                        1.512
       Maximum GTO radius used for PAW projector construction:            24.566

     GAPW Soft Basis Set                                 aug-DZVP-MOLOPT-ae_soft

       Number of orbital shell sets:                                           2
       Number of orbital shells:                                              10
       Number of primitive Cartesian functions:                                6
       Number of Cartesian basis functions:                                   35
       Number of spherical basis functions:                                   30
       Norm type:                                                              2

       Normalised Cartesian orbitals:

                        Set   Shell   Orbital            Exponent    Coefficient

                          1       1    2s                0.060000      -0.096639
                                                         0.166384       0.037538
                                                         0.634073      -0.055669
                                                         2.325354       0.000000

                          1       2    3px               0.060000       0.000000
                                                         0.166384      -0.031930
                                                         0.634073      -0.492962
                                                         2.325354      -1.380142
                          1       2    3py               0.060000       0.000000
                                                         0.166384      -0.031930
                                                         0.634073      -0.492962
                                                         2.325354      -1.380142
                          1       2    3pz               0.060000       0.000000
                                                         0.166384      -0.031930
                                                         0.634073      -0.492962
                                                         2.325354      -1.380142

                          1       3    4px               0.060000       0.000000
                                                         0.166384       0.169694
                                                         0.634073      -0.220766
                                                         2.325354      -0.809234
                          1       3    4py               0.060000       0.000000
                                                         0.166384       0.169694
                                                         0.634073      -0.220766
                                                         2.325354      -0.809234
                          1       3    4pz               0.060000       0.000000
                                                         0.166384       0.169694
                                                         0.634073      -0.220766
                                                         2.325354      -0.809234

                          1       4    5px               0.060000       0.028594
                                                         0.166384       0.063224
                                                         0.634073      -0.046183
                                                         2.325354       0.000000
                          1       4    5py               0.060000       0.028594
                                                         0.166384       0.063224
                                                         0.634073      -0.046183
                                                         2.325354       0.000000
                          1       4    5pz               0.060000       0.028594
                                                         0.166384       0.063224
                                                         0.634073      -0.046183
                                                         2.325354       0.000000

                          1       5    4dx2              0.060000       0.000000
                                                         0.166384       0.019402
                                                         0.634073       0.555487
                                                         2.325354       1.255926
                          1       5    4dxy              0.060000       0.000000
                                                         0.166384       0.033606
                                                         0.634073       0.962132
                                                         2.325354       2.175327
                          1       5    4dxz              0.060000       0.000000
                                                         0.166384       0.033606
                                                         0.634073       0.962132
                                                         2.325354       2.175327
                          1       5    4dy2              0.060000       0.000000
                                                         0.166384       0.019402
                                                         0.634073       0.555487
                                                         2.325354       1.255926
                          1       5    4dyz              0.060000       0.000000
                                                         0.166384       0.033606
                                                         0.634073       0.962132
                                                         2.325354       2.175327
                          1       5    4dz2              0.060000       0.000000
                                                         0.166384       0.019402
                                                         0.634073       0.555487
                                                         2.325354       1.255926

                          1       6    5dx2              0.060000      -0.008089
                                                         0.166384      -0.027907
                                                         0.634073      -0.057221
                                                         2.325354       0.000000
                          1       6    5dxy              0.060000      -0.014011
                                                         0.166384      -0.048336
                                                         0.634073      -0.099109
                                                         2.325354       0.000000
                          1       6    5dxz              0.060000      -0.014011
                                                         0.166384      -0.048336
                                                         0.634073      -0.099109
                                                         2.325354       0.000000
                          1       6    5dy2              0.060000      -0.008089
                                                         0.166384      -0.027907
                                                         0.634073      -0.057221
                                                         2.325354       0.000000
                          1       6    5dyz              0.060000      -0.014011
                                                         0.166384      -0.048336
                                                         0.634073      -0.099109
                                                         2.325354       0.000000
                          1       6    5dz2              0.060000      -0.008089
                                                         0.166384      -0.027907
                                                         0.634073      -0.057221
                                                         2.325354       0.000000

                          1       7    5fx3              0.060000       0.000067
                                                         0.166384       0.012645
                                                         0.634073       0.328269
                                                         2.325354       1.687172
                          1       7    5fx2y             0.060000       0.000150
                                                         0.166384       0.028275
                                                         0.634073       0.734031
                                                         2.325354       3.772631
                          1       7    5fx2z             0.060000       0.000150
                                                         0.166384       0.028275
                                                         0.634073       0.734031
                                                         2.325354       3.772631
                          1       7    5fxy2             0.060000       0.000150
                                                         0.166384       0.028275
                                                         0.634073       0.734031
                                                         2.325354       3.772631
                          1       7    5fxyz             0.060000       0.000260
                                                         0.166384       0.048973
                                                         0.634073       1.271379
                                                         2.325354       6.534389
                          1       7    5fxz2             0.060000       0.000150
                                                         0.166384       0.028275
                                                         0.634073       0.734031
                                                         2.325354       3.772631
                          1       7    5fy3              0.060000       0.000067
                                                         0.166384       0.012645
                                                         0.634073       0.328269
                                                         2.325354       1.687172
                          1       7    5fy2z             0.060000       0.000150
                                                         0.166384       0.028275
                                                         0.634073       0.734031
                                                         2.325354       3.772631
                          1       7    5fyz2             0.060000       0.000150
                                                         0.166384       0.028275
                                                         0.634073       0.734031
                                                         2.325354       3.772631
                          1       7    5fz3              0.060000       0.000067
                                                         0.166384       0.012645
                                                         0.634073       0.328269
                                                         2.325354       1.687172

                          2       1    1s                0.191012      -0.002582
                                                         0.666629       0.012902

                          2       2    2s                0.191012       0.079194
                                                         0.666629       0.351708

                          2       3    3s                0.191012       0.300064
                                                         0.666629      -0.436823

     AE Potential information for                                            ALL

       Description:                                       All-electron potential
                                          Krack, Parrinello, PCCP 2, 2105 (2000)

       Gaussian exponent of the core charge distribution:               5.979100
       Electronic configuration (s p d ...):                           4   3   0

  4. Atomic kind: H                                     Number of atoms:       6

     Orbital Basis Set                                        aug-DZVP-MOLOPT-ae

       Number of orbital shell sets:                                           1
       Number of orbital shells:                                               5
       Number of primitive Cartesian functions:                                5
       Number of Cartesian basis functions:                                    9
       Number of spherical basis functions:                                    9
       Norm type:                                                              2

       Normalised Cartesian orbitals:

                        Set   Shell   Orbital            Exponent    Coefficient

                          1       1    2s                0.035000       0.000000
                                                         0.111920       0.009149
                                                         0.374948       0.205449
                                                         1.446686       0.373852
                                                        12.248855       0.310040

                          1       2    3s                0.035000       0.000000
                                                         0.111920       0.143650
                                                         0.374948       0.007287
                                                         1.446686      -0.188851
                                                        12.248855      -0.144753

                          1       3    4s                0.035000       0.090463
                                                         0.111920      -0.203934
                                                         0.374948      -0.000376
                                                         1.446686      -0.000051
                                                        12.248855       0.000000

                          1       4    3px               0.035000       0.000000
                                                         0.111920       0.007225
                                                         0.374948       0.280770
                                                         1.446686       0.896497
                                                        12.248855      -0.764411
                          1       4    3py               0.035000       0.000000
                                                         0.111920       0.007225
                                                         0.374948       0.280770
                                                         1.446686       0.896497
                                                        12.248855      -0.764411
                          1       4    3pz               0.035000       0.000000
                                                         0.111920       0.007225
                                                         0.374948       0.280770
                                                         1.446686       0.896497
                                                        12.248855      -0.764411

                          1       5    4px               0.035000       0.011331
                                                         0.111920       0.048737
                                                         0.374948       0.028490
                                                         1.446686       0.035587
                                                        12.248855       0.000000
                          1       5    4py               0.035000       0.011331
                                                         0.111920       0.048737
                                                         0.374948       0.028490
                                                         1.446686       0.035587
                                                        12.248855       0.000000
                          1       5    4pz               0.035000       0.011331
                                                         0.111920       0.048737
                                                         0.374948       0.028490
                                                         1.446686       0.035587
                                                        12.248855       0.000000

     RI Auxiliary Basis Set             RI_aug-DZVP-MOLOPT-ae_N_RI_009_s_p_d_f_g

       Number of orbital shell sets:                                           5
       Number of orbital shells:                                               5
       Number of primitive Cartesian functions:                                5
       Number of Cartesian basis functions:                                    9
       Number of spherical basis functions:                                    9
       Norm type:                                                              2

       Normalised Cartesian orbitals:

                        Set   Shell   Orbital            Exponent    Coefficient

                          1       1    4px               0.330315       0.356944
                          1       1    4py               0.330315       0.356944
                          1       1    4pz               0.330315       0.356944

                          2       1    1s                0.373568       0.340555

                          3       1    2s                0.886477       0.651119

                          4       1    5px               1.451319       2.270616
                          4       1    5py               1.451319       2.270616
                          4       1    5pz               1.451319       2.270616

                          5       1    3s                5.028848       2.393379

       Atomic covalent radius [Angstrom]:                                  0.320

       Atomic van der Waals radius [Angstrom]:                             1.090

     The atoms of this atomic kind are PAW atoms (GAPW):
       Hard Gaussian function radius:                                      1.200
       Rho0 radius:                                                        1.200
       Maximum GTO radius used for PAW projector construction:            24.566

     GAPW Soft Basis Set                                 aug-DZVP-MOLOPT-ae_soft

       Number of orbital shell sets:                                           1
       Number of orbital shells:                                               5
       Number of primitive Cartesian functions:                                4
       Number of Cartesian basis functions:                                    9
       Number of spherical basis functions:                                    9
       Norm type:                                                              2

       Normalised Cartesian orbitals:

                        Set   Shell   Orbital            Exponent    Coefficient

                          1       1    2s                0.035000       0.000000
                                                         0.111920       0.009149
                                                         0.374948       0.205449
                                                         1.446686       0.373852

                          1       2    3s                0.035000       0.000000
                                                         0.111920       0.143650
                                                         0.374948       0.007287
                                                         1.446686      -0.188851

                          1       3    4s                0.035000       0.090463
                                                         0.111920      -0.203934
                                                         0.374948      -0.000376
                                                         1.446686      -0.000051

                          1       4    3px               0.035000       0.000000
                                                         0.111920       0.007225
                                                         0.374948       0.280770
                                                         1.446686       0.896497
                          1       4    3py               0.035000       0.000000
                                                         0.111920       0.007225
                                                         0.374948       0.280770
                                                         1.446686       0.896497
                          1       4    3pz               0.035000       0.000000
                                                         0.111920       0.007225
                                                         0.374948       0.280770
                                                         1.446686       0.896497

                          1       5    4px               0.035000       0.011331
                                                         0.111920       0.048737
                                                         0.374948       0.028490
                                                         1.446686       0.035587
                          1       5    4py               0.035000       0.011331
                                                         0.111920       0.048737
                                                         0.374948       0.028490
                                                         1.446686       0.035587
                          1       5    4pz               0.035000       0.011331
                                                         0.111920       0.048737
                                                         0.374948       0.028490
                                                         1.446686       0.035587

     AE Potential information for                                            ALL

       Description:                                       All-electron potential
                                          Krack, Parrinello, PCCP 2, 2105 (2000)

       Gaussian exponent of the core charge distribution:              12.500000
       Electronic configuration (s p d ...):                           1   0   0

  5. Atomic kind: C                                     Number of atoms:       5

     Orbital Basis Set                                        aug-DZVP-MOLOPT-ae

       Number of orbital shell sets:                                           2
       Number of orbital shells:                                              10
       Number of primitive Cartesian functions:                               13
       Number of Cartesian basis functions:                                   35
       Number of spherical basis functions:                                   30
       Norm type:                                                              2

       Normalised Cartesian orbitals:

                        Set   Shell   Orbital            Exponent    Coefficient

                          1       1    2px               0.050000       0.000000
                                                         0.096935       0.005344
                                                         0.300899       0.144116
                                                         0.937529       0.673511
                                                         4.145546       1.425967
                          1       1    2py               0.050000       0.000000
                                                         0.096935       0.005344
                                                         0.300899       0.144116
                                                         0.937529       0.673511
                                                         4.145546       1.425967
                          1       1    2pz               0.050000       0.000000
                                                         0.096935       0.005344
                                                         0.300899       0.144116
                                                         0.937529       0.673511
                                                         4.145546       1.425967

                          1       2    3px               0.050000       0.000000
                                                         0.096935       0.066903
                                                         0.300899       0.082631
                                                         0.937529      -0.414500
                                                         4.145546      -0.833488
                          1       2    3py               0.050000       0.000000
                                                         0.096935       0.066903
                                                         0.300899       0.082631
                                                         0.937529      -0.414500
                                                         4.145546      -0.833488
                          1       2    3pz               0.050000       0.000000
                                                         0.096935       0.066903
                                                         0.300899       0.082631
                                                         0.937529      -0.414500
                                                         4.145546      -0.833488

                          1       3    4px               0.050000       0.052477
                                                         0.096935      -0.149600
                                                         0.300899      -0.031452
                                                         0.937529       0.106528
                                                         4.145546       0.000000
                          1       3    4py               0.050000       0.052477
                                                         0.096935      -0.149600
                                                         0.300899      -0.031452
                                                         0.937529       0.106528
                                                         4.145546       0.000000
                          1       3    4pz               0.050000       0.052477
                                                         0.096935      -0.149600
                                                         0.300899      -0.031452
                                                         0.937529       0.106528
                                                         4.145546       0.000000

                          1       4    3dx2              0.050000       0.000000
                                                         0.096935       0.001258
                                                         0.300899       0.105504
                                                         0.937529       0.830801
                                                         4.145546       0.718979
                          1       4    3dxy              0.050000       0.000000
                                                         0.096935       0.002179
                                                         0.300899       0.182739
                                                         0.937529       1.438990
                                                         4.145546       1.245309
                          1       4    3dxz              0.050000       0.000000
                                                         0.096935       0.002179
                                                         0.300899       0.182739
                                                         0.937529       1.438990
                                                         4.145546       1.245309
                          1       4    3dy2              0.050000       0.000000
                                                         0.096935       0.001258
                                                         0.300899       0.105504
                                                         0.937529       0.830801
                                                         4.145546       0.718979
                          1       4    3dyz              0.050000       0.000000
                                                         0.096935       0.002179
                                                         0.300899       0.182739
                                                         0.937529       1.438990
                                                         4.145546       1.245309
                          1       4    3dz2              0.050000       0.000000
                                                         0.096935       0.001258
                                                         0.300899       0.105504
                                                         0.937529       0.830801
                                                         4.145546       0.718979

                          1       5    4dx2              0.050000      -0.011665
                                                         0.096935       0.057456
                                                         0.300899      -0.258169
                                                         0.937529       0.000000
                                                         4.145546       0.000000
                          1       5    4dxy              0.050000      -0.020204
                                                         0.096935       0.099516
                                                         0.300899      -0.447162
                                                         0.937529       0.000000
                                                         4.145546       0.000000
                          1       5    4dxz              0.050000      -0.020204
                                                         0.096935       0.099516
                                                         0.300899      -0.447162
                                                         0.937529       0.000000
                                                         4.145546       0.000000
                          1       5    4dy2              0.050000      -0.011665
                                                         0.096935       0.057456
                                                         0.300899      -0.258169
                                                         0.937529       0.000000
                                                         4.145546       0.000000
                          1       5    4dyz              0.050000      -0.020204
                                                         0.096935       0.099516
                                                         0.300899      -0.447162
                                                         0.937529       0.000000
                                                         4.145546       0.000000
                          1       5    4dz2              0.050000      -0.011665
                                                         0.096935       0.057456
                                                         0.300899      -0.258169
                                                         0.937529       0.000000
                                                         4.145546       0.000000

                          1       6    4fx3              0.050000      -0.000180
                                                         0.096935       0.008160
                                                         0.300899       0.004002
                                                         0.937529       0.000000
                                                         4.145546       0.000000
                          1       6    4fx2y             0.050000      -0.000402
                                                         0.096935       0.018246
                                                         0.300899       0.008949
                                                         0.937529       0.000000
                                                         4.145546       0.000000
                          1       6    4fx2z             0.050000      -0.000402
                                                         0.096935       0.018246
                                                         0.300899       0.008949
                                                         0.937529       0.000000
                                                         4.145546       0.000000
                          1       6    4fxy2             0.050000      -0.000402
                                                         0.096935       0.018246
                                                         0.300899       0.008949
                                                         0.937529       0.000000
                                                         4.145546       0.000000
                          1       6    4fxyz             0.050000      -0.000696
                                                         0.096935       0.031603
                                                         0.300899       0.015500
                                                         0.937529       0.000000
                                                         4.145546       0.000000
                          1       6    4fxz2             0.050000      -0.000402
                                                         0.096935       0.018246
                                                         0.300899       0.008949
                                                         0.937529       0.000000
                                                         4.145546       0.000000
                          1       6    4fy3              0.050000      -0.000180
                                                         0.096935       0.008160
                                                         0.300899       0.004002
                                                         0.937529       0.000000
                                                         4.145546       0.000000
                          1       6    4fy2z             0.050000      -0.000402
                                                         0.096935       0.018246
                                                         0.300899       0.008949
                                                         0.937529       0.000000
                                                         4.145546       0.000000
                          1       6    4fyz2             0.050000      -0.000402
                                                         0.096935       0.018246
                                                         0.300899       0.008949
                                                         0.937529       0.000000
                                                         4.145546       0.000000
                          1       6    4fz3              0.050000      -0.000180
                                                         0.096935       0.008160
                                                         0.300899       0.004002
                                                         0.937529       0.000000
                                                         4.145546       0.000000

                          2       1    1s                0.060000       0.000000
                                                         0.161278       0.024253
                                                         0.523772      -0.029268
                                                         3.176528       0.666384
                                                        10.501907       2.110671
                                                        40.805234       2.242010
                                                       186.270922       1.801845
                                                      1238.394264      -0.490536

                          2       2    2s                0.060000       0.000000
                                                         0.161278       0.080328
                                                         0.523772       0.279468
                                                         3.176528      -0.079506
                                                        10.501907      -0.033488
                                                        40.805234       0.350132
                                                       186.270922      -0.108171
                                                      1238.394264       0.147138

                          2       3    3s                0.060000       0.000000
                                                         0.161278       0.225687
                                                         0.523772      -0.382710
                                                         3.176528      -0.308205
                                                        10.501907      -0.974990
                                                        40.805234      -2.174132
                                                       186.270922       1.755878
                                                      1238.394264     -12.484315

                          2       4    4s                0.060000      -0.055653
                                                         0.161278      -0.019607
                                                         0.523772       0.500289
                                                         3.176528       0.067234
                                                        10.501907       0.000000
                                                        40.805234       0.000000
                                                       186.270922       0.000000
                                                      1238.394264       0.000000

     RI Auxiliary Basis Set             RI_aug-DZVP-MOLOPT-ae_N_RI_060_s_p_d_f_g

       Number of orbital shell sets:                                          18
       Number of orbital shells:                                              18
       Number of primitive Cartesian functions:                               18
       Number of Cartesian basis functions:                                   75
       Number of spherical basis functions:                                   60
       Norm type:                                                              2

       Normalised Cartesian orbitals:

                        Set   Shell   Orbital            Exponent    Coefficient

                          1       1    1s                0.139029       0.162270

                          2       1   13dx2              0.260720       0.156572
                          2       1   13dxy              0.260720       0.271190
                          2       1   13dxz              0.260720       0.271190
                          2       1   13dy2              0.260720       0.156572
                          2       1   13dyz              0.260720       0.271190
                          2       1   13dz2              0.260720       0.156572

                          3       1    8px               0.263737       0.269404
                          3       1    8py               0.263737       0.269404
                          3       1    8pz               0.263737       0.269404

                          4       1   16fx3              0.295019       0.094432
                          4       1   16fx2y             0.295019       0.211156
                          4       1   16fx2z             0.295019       0.211156
                          4       1   16fxy2             0.295019       0.211156
                          4       1   16fxyz             0.295019       0.365732
                          4       1   16fxz2             0.295019       0.211156
                          4       1   16fy3              0.295019       0.094432
                          4       1   16fy2z             0.295019       0.211156
                          4       1   16fyz2             0.295019       0.211156
                          4       1   16fz3              0.295019       0.094432

                          5       1    2s                0.350935       0.324960

                          6       1    9px               0.711576       0.931572
                          6       1    9py               0.711576       0.931572
                          6       1    9pz               0.711576       0.931572

                          7       1   14dx2              0.722037       0.930870
                          7       1   14dxy              0.722037       1.612314
                          7       1   14dxz              0.722037       1.612314
                          7       1   14dy2              0.722037       0.930870
                          7       1   14dyz              0.722037       1.612314
                          7       1   14dz2              0.722037       0.930870

                          8       1   18gx4              0.735195       0.477576
                          8       1   18gx3y             0.735195       1.263547
                          8       1   18gx3z             0.735195       1.263547
                          8       1   18gx2y2            0.735195       1.631232
                          8       1   18gx2yz            0.735195       2.825377
                          8       1   18gx2z2            0.735195       1.631232
                          8       1   18gxy3             0.735195       1.263547
                          8       1   18gxy2z            0.735195       2.825377
                          8       1   18gxyz2            0.735195       2.825377
                          8       1   18gxz3             0.735195       1.263547
                          8       1   18gy4              0.735195       0.477576
                          8       1   18gy3z             0.735195       1.263547
                          8       1   18gy2z2            0.735195       1.631232
                          8       1   18gyz3             0.735195       1.263547
                          8       1   18gz4              0.735195       0.477576

                          9       1    3s                1.027105       0.727145

                         10       1   17fx3              1.228639       2.339694
                         10       1   17fx2y             1.228639       5.231715
                         10       1   17fx2z             1.228639       5.231715
                         10       1   17fxy2             1.228639       5.231715
                         10       1   17fxyz             1.228639       9.061596
                         10       1   17fxz2             1.228639       5.231715
                         10       1   17fy3              1.228639       2.339694
                         10       1   17fy2z             1.228639       5.231715
                         10       1   17fyz2             1.228639       5.231715
                         10       1   17fz3              1.228639       2.339694

                         11       1   10px               1.813548       2.999863
                         11       1   10py               1.813548       2.999863
                         11       1   10pz               1.813548       2.999863

                         12       1   15dx2              2.060642       5.833296
                         12       1   15dxy              2.060642      10.103564
                         12       1   15dxz              2.060642      10.103564
                         12       1   15dy2              2.060642       5.833296
                         12       1   15dyz              2.060642      10.103564
                         12       1   15dz2              2.060642       5.833296

                         13       1    4s                3.115108       1.671148

                         14       1   11px               5.572228      12.203269
                         14       1   11py               5.572228      12.203269
                         14       1   11pz               5.572228      12.203269

                         15       1    5s                9.292692       3.793292

                         16       1   12px              16.974300      49.111129
                         16       1   12py              16.974300      49.111129
                         16       1   12pz              16.974300      49.111129

                         17       1    6s               27.662549       8.596650

                         18       1    7s               82.345042      19.482208

       Atomic covalent radius [Angstrom]:                                  0.770

       Atomic van der Waals radius [Angstrom]:                             1.700

     The atoms of this atomic kind are PAW atoms (GAPW):
       Hard Gaussian function radius:                                      1.512
       Rho0 radius:                                                        1.512
       Maximum GTO radius used for PAW projector construction:            24.566

     GAPW Soft Basis Set                                 aug-DZVP-MOLOPT-ae_soft

       Number of orbital shell sets:                                           2
       Number of orbital shells:                                              10
       Number of primitive Cartesian functions:                                9
       Number of Cartesian basis functions:                                   35
       Number of spherical basis functions:                                   30
       Norm type:                                                              2

       Normalised Cartesian orbitals:

                        Set   Shell   Orbital            Exponent    Coefficient

                          1       1    2px               0.050000       0.000000
                                                         0.096935       0.005344
                                                         0.300899       0.144116
                                                         0.937529       0.673511
                                                         4.145546       1.425967
                          1       1    2py               0.050000       0.000000
                                                         0.096935       0.005344
                                                         0.300899       0.144116
                                                         0.937529       0.673511
                                                         4.145546       1.425967
                          1       1    2pz               0.050000       0.000000
                                                         0.096935       0.005344
                                                         0.300899       0.144116
                                                         0.937529       0.673511
                                                         4.145546       1.425967

                          1       2    3px               0.050000       0.000000
                                                         0.096935       0.066903
                                                         0.300899       0.082631
                                                         0.937529      -0.414500
                                                         4.145546      -0.833488
                          1       2    3py               0.050000       0.000000
                                                         0.096935       0.066903
                                                         0.300899       0.082631
                                                         0.937529      -0.414500
                                                         4.145546      -0.833488
                          1       2    3pz               0.050000       0.000000
                                                         0.096935       0.066903
                                                         0.300899       0.082631
                                                         0.937529      -0.414500
                                                         4.145546      -0.833488

                          1       3    4px               0.050000       0.052477
                                                         0.096935      -0.149600
                                                         0.300899      -0.031452
                                                         0.937529       0.106528
                                                         4.145546       0.000000
                          1       3    4py               0.050000       0.052477
                                                         0.096935      -0.149600
                                                         0.300899      -0.031452
                                                         0.937529       0.106528
                                                         4.145546       0.000000
                          1       3    4pz               0.050000       0.052477
                                                         0.096935      -0.149600
                                                         0.300899      -0.031452
                                                         0.937529       0.106528
                                                         4.145546       0.000000

                          1       4    3dx2              0.050000       0.000000
                                                         0.096935       0.001258
                                                         0.300899       0.105504
                                                         0.937529       0.830801
                                                         4.145546       0.718979
                          1       4    3dxy              0.050000       0.000000
                                                         0.096935       0.002179
                                                         0.300899       0.182739
                                                         0.937529       1.438990
                                                         4.145546       1.245309
                          1       4    3dxz              0.050000       0.000000
                                                         0.096935       0.002179
                                                         0.300899       0.182739
                                                         0.937529       1.438990
                                                         4.145546       1.245309
                          1       4    3dy2              0.050000       0.000000
                                                         0.096935       0.001258
                                                         0.300899       0.105504
                                                         0.937529       0.830801
                                                         4.145546       0.718979
                          1       4    3dyz              0.050000       0.000000
                                                         0.096935       0.002179
                                                         0.300899       0.182739
                                                         0.937529       1.438990
                                                         4.145546       1.245309
                          1       4    3dz2              0.050000       0.000000
                                                         0.096935       0.001258
                                                         0.300899       0.105504
                                                         0.937529       0.830801
                                                         4.145546       0.718979

                          1       5    4dx2              0.050000      -0.011665
                                                         0.096935       0.057456
                                                         0.300899      -0.258169
                                                         0.937529       0.000000
                                                         4.145546       0.000000
                          1       5    4dxy              0.050000      -0.020204
                                                         0.096935       0.099516
                                                         0.300899      -0.447162
                                                         0.937529       0.000000
                                                         4.145546       0.000000
                          1       5    4dxz              0.050000      -0.020204
                                                         0.096935       0.099516
                                                         0.300899      -0.447162
                                                         0.937529       0.000000
                                                         4.145546       0.000000
                          1       5    4dy2              0.050000      -0.011665
                                                         0.096935       0.057456
                                                         0.300899      -0.258169
                                                         0.937529       0.000000
                                                         4.145546       0.000000
                          1       5    4dyz              0.050000      -0.020204
                                                         0.096935       0.099516
                                                         0.300899      -0.447162
                                                         0.937529       0.000000
                                                         4.145546       0.000000
                          1       5    4dz2              0.050000      -0.011665
                                                         0.096935       0.057456
                                                         0.300899      -0.258169
                                                         0.937529       0.000000
                                                         4.145546       0.000000

                          1       6    4fx3              0.050000      -0.000180
                                                         0.096935       0.008160
                                                         0.300899       0.004002
                                                         0.937529       0.000000
                                                         4.145546       0.000000
                          1       6    4fx2y             0.050000      -0.000402
                                                         0.096935       0.018246
                                                         0.300899       0.008949
                                                         0.937529       0.000000
                                                         4.145546       0.000000
                          1       6    4fx2z             0.050000      -0.000402
                                                         0.096935       0.018246
                                                         0.300899       0.008949
                                                         0.937529       0.000000
                                                         4.145546       0.000000
                          1       6    4fxy2             0.050000      -0.000402
                                                         0.096935       0.018246
                                                         0.300899       0.008949
                                                         0.937529       0.000000
                                                         4.145546       0.000000
                          1       6    4fxyz             0.050000      -0.000696
                                                         0.096935       0.031603
                                                         0.300899       0.015500
                                                         0.937529       0.000000
                                                         4.145546       0.000000
                          1       6    4fxz2             0.050000      -0.000402
                                                         0.096935       0.018246
                                                         0.300899       0.008949
                                                         0.937529       0.000000
                                                         4.145546       0.000000
                          1       6    4fy3              0.050000      -0.000180
                                                         0.096935       0.008160
                                                         0.300899       0.004002
                                                         0.937529       0.000000
                                                         4.145546       0.000000
                          1       6    4fy2z             0.050000      -0.000402
                                                         0.096935       0.018246
                                                         0.300899       0.008949
                                                         0.937529       0.000000
                                                         4.145546       0.000000
                          1       6    4fyz2             0.050000      -0.000402
                                                         0.096935       0.018246
                                                         0.300899       0.008949
                                                         0.937529       0.000000
                                                         4.145546       0.000000
                          1       6    4fz3              0.050000      -0.000180
                                                         0.096935       0.008160
                                                         0.300899       0.004002
                                                         0.937529       0.000000
                                                         4.145546       0.000000

                          2       1    1s                0.060000       0.000000
                                                         0.161278       0.024253
                                                         0.523772      -0.029268
                                                         3.176528       0.666384

                          2       2    2s                0.060000       0.000000
                                                         0.161278       0.080328
                                                         0.523772       0.279468
                                                         3.176528      -0.079506

                          2       3    3s                0.060000       0.000000
                                                         0.161278       0.225687
                                                         0.523772      -0.382710
                                                         3.176528      -0.308205

                          2       4    4s                0.060000      -0.055653
                                                         0.161278      -0.019607
                                                         0.523772       0.500289
                                                         3.176528       0.067234

     AE Potential information for                                            ALL

       Description:                                       All-electron potential
                                          Krack, Parrinello, PCCP 2, 2105 (2000)

       Gaussian exponent of the core charge distribution:               4.109048
       Electronic configuration (s p d ...):                           4   2   0


 MOLECULE KIND INFORMATION


 All atoms are their own molecule, skipping detailed information


 TOTAL NUMBERS AND MAXIMUM NUMBERS

  Total number of            - Atomic kinds:                                   5
                             - Atoms:                                         16
                             - Shell sets:                                    26
                             - Shells:                                       130
                             - Primitive Cartesian functions:                158
                             - Cartesian basis functions:                    404
                             - Spherical basis functions:                    354

  Maximum angular momentum of the orbital basis functions:                     3


 MODULE QUICKSTEP: ATOMIC COORDINATES IN ANGSTROM

   Atom Kind Element         X             Y             Z       Z(eff)     Mass
      1    1 F     9     14.565288     15.704938     13.205807   9.0000  18.9984
      2    1 F     9     16.686659     16.228998     13.055407   9.0000  18.9984
      3    2 O     8     13.077093     14.305382     16.944593   8.0000  15.9994
      4    3 N     7     14.808168     15.595645     16.123841   7.0000  14.0067
      5    4 H     1     14.469167     16.465935     16.519214   1.0000   1.0079
      6    5 C     6     14.081886     14.429665     16.268601   6.0000  12.0107
      7    5 C     6     14.782476     13.366759     15.421547   6.0000  12.0107
      8    4 H     1     14.136832     13.148236     14.559524   1.0000   1.0079
      9    4 H     1     14.887939     12.440326     15.995991   1.0000   1.0079
     10    5 C     6     16.119743     13.998237     15.012849   6.0000  12.0107
     11    4 H     1     16.430255     13.752999     13.991714   1.0000   1.0079
     12    4 H     1     16.922907     13.676200     15.686297   1.0000   1.0079
     13    5 C     6     15.912338     15.525675     15.197604   6.0000  12.0107
     14    4 H     1     16.814265     16.012709     15.598077   1.0000   1.0079
     15    5 C     6     15.606780     16.253513     13.879214   6.0000  12.0107
     16    1 F     9     15.297678     17.559674     14.103673   9.0000  18.9984



 SCF PARAMETERS         Density guess:                                    ATOMIC
                        --------------------------------------------------------
                        max_scf:                                             500
                        max_scf_history:                                       0
                        max_diis:                                              4
                        --------------------------------------------------------
                        eps_scf:                                        1.00E-06
                        eps_scf_history:                                0.00E+00
                        eps_diis:                                       1.00E-01
                        eps_eigval:                                     1.00E-05
                        --------------------------------------------------------
                        level_shift [a.u.]:                             0.000000
                        added MOs                                       315    0
                        --------------------------------------------------------
                        Mixing method:                            BROYDEN_MIXING
                                                charge density mixing in g-space
                        --------------------------------------------------------
                        No outer SCF

 PW_GRID| Information for grid number                                          1
 PW_GRID| Grid distributed over                                   192 processors
 PW_GRID| Real space group dimensions                                   192    1
 PW_GRID| the grid is blocked:                                                NO
 PW_GRID| Cutoff [a.u.]                                                    250.0
 PW_GRID| spherical cutoff:                                                   NO
 PW_GRID|   Bounds   1           -202     202                Points:         405
 PW_GRID|   Bounds   2           -202     202                Points:         405
 PW_GRID|   Bounds   3           -202     202                Points:         405
 PW_GRID| Volume element (a.u.^3)  0.2743E-02     Volume (a.u.^3)    182205.0337
 PW_GRID| Grid span                                                    FULLSPACE
 PW_GRID|   Distribution                         Average         Max         Min
 PW_GRID|   G-Vectors                           345990.2      346275      345870
 PW_GRID|   G-Rays                                 854.3         855         854
 PW_GRID|   Real Space Points                   345990.2      492075      328050

 PW_GRID| Information for grid number                                          2
 PW_GRID| Number of the reference grid                                         1
 PW_GRID| Grid distributed over                                   192 processors
 PW_GRID| Real space group dimensions                                   192    1
 PW_GRID| the grid is blocked:                                                NO
 PW_GRID| Cutoff [a.u.]                                                     83.3
 PW_GRID| spherical cutoff:                                                   NO
 PW_GRID|   Bounds   1           -120     119                Points:         240
 PW_GRID|   Bounds   2           -120     119                Points:         240
 PW_GRID|   Bounds   3           -120     119                Points:         240
 PW_GRID| Volume element (a.u.^3)  0.1318E-01     Volume (a.u.^3)    182205.0337
 PW_GRID| Grid span                                                    FULLSPACE
 PW_GRID|   Distribution                         Average         Max         Min
 PW_GRID|   G-Vectors                            72000.0       72240       71760
 PW_GRID|   G-Rays                                 300.0         301         299
 PW_GRID|   Real Space Points                    72000.0      115200       57600

 PW_GRID| Information for grid number                                          3
 PW_GRID| Number of the reference grid                                         1
 PW_GRID| Grid distributed over                                   192 processors
 PW_GRID| Real space group dimensions                                    12   16
 PW_GRID| the grid is blocked:                                                NO
 PW_GRID| Cutoff [a.u.]                                                     27.8
 PW_GRID| spherical cutoff:                                                   NO
 PW_GRID|   Bounds   1            -67      67                Points:         135
 PW_GRID|   Bounds   2            -67      67                Points:         135
 PW_GRID|   Bounds   3            -67      67                Points:         135
 PW_GRID| Volume element (a.u.^3)  0.7406E-01     Volume (a.u.^3)    182205.0337
 PW_GRID| Grid span                                                    FULLSPACE
 PW_GRID|   Distribution                         Average         Max         Min
 PW_GRID|   G-Vectors                            12814.5       12960       12690
 PW_GRID|   G-Rays                                  94.9          96          94
 PW_GRID|   Real Space Points                    12814.5       14580       11880

 PW_GRID| Information for grid number                                          4
 PW_GRID| Number of the reference grid                                         1
 PW_GRID| Grid distributed over                                   192 processors
 PW_GRID| Real space group dimensions                                    12   16
 PW_GRID| the grid is blocked:                                                NO
 PW_GRID| Cutoff [a.u.]                                                      9.3
 PW_GRID| spherical cutoff:                                                   NO
 PW_GRID|   Bounds   1            -40      39                Points:          80
 PW_GRID|   Bounds   2            -40      39                Points:          80
 PW_GRID|   Bounds   3            -40      39                Points:          80
 PW_GRID| Volume element (a.u.^3)  0.3559         Volume (a.u.^3)    182205.0337
 PW_GRID| Grid span                                                    FULLSPACE
 PW_GRID|   Distribution                         Average         Max         Min
 PW_GRID|   G-Vectors                             2666.7        2800        2560
 PW_GRID|   G-Rays                                  33.3          35          32
 PW_GRID|   Real Space Points                     2666.7        2800        2400

 POISSON| Solver                                                         WAVELET
 POISSON| Wavelet| Scaling function                                           40
 POISSON| Periodicity                                                       NONE

 RS_GRID| Information for grid number                                          1
 RS_GRID|   Bounds   1           -202     202                Points:         405
 RS_GRID|   Bounds   2           -202     202                Points:         405
 RS_GRID|   Bounds   3           -202     202                Points:         405
 RS_GRID| Real space distribution over                                  4 groups
 RS_GRID| Real space distribution along direction                              1
 RS_GRID| Border size                                                         37
 RS_GRID| Real space distribution over                                  6 groups
 RS_GRID| Real space distribution along direction                              2
 RS_GRID| Border size                                                         37
 RS_GRID| Real space distribution over                                  8 groups
 RS_GRID| Real space distribution along direction                              3
 RS_GRID| Border size                                                         37
 RS_GRID|   Distribution                         Average         Max         Min
 RS_GRID|   Planes                                 175.2         176         175
 RS_GRID|   Distribution                         Average         Max         Min
 RS_GRID|   Planes                                 141.5         142         141
 RS_GRID|   Distribution                         Average         Max         Min
 RS_GRID|   Planes                                 124.6         125         124

 RS_GRID| Information for grid number                                          2
 RS_GRID|   Bounds   1           -120     119                Points:         240
 RS_GRID|   Bounds   2           -120     119                Points:         240
 RS_GRID|   Bounds   3           -120     119                Points:         240
 RS_GRID| Real space distribution over                                  4 groups
 RS_GRID| Real space distribution along direction                              1
 RS_GRID| Border size                                                         38
 RS_GRID| Real space distribution over                                  6 groups
 RS_GRID| Real space distribution along direction                              2
 RS_GRID| Border size                                                         38
 RS_GRID| Real space distribution over                                  8 groups
 RS_GRID| Real space distribution along direction                              3
 RS_GRID| Border size                                                         38
 RS_GRID|   Distribution                         Average         Max         Min
 RS_GRID|   Planes                                 136.0         136         136
 RS_GRID|   Distribution                         Average         Max         Min
 RS_GRID|   Planes                                 116.0         116         116
 RS_GRID|   Distribution                         Average         Max         Min
 RS_GRID|   Planes                                 106.0         106         106

 RS_GRID| Information for grid number                                          3
 RS_GRID|   Bounds   1            -67      67                Points:         135
 RS_GRID|   Bounds   2            -67      67                Points:         135
 RS_GRID|   Bounds   3            -67      67                Points:         135
 RS_GRID| Real space fully replicated
 RS_GRID| Group size                                                           1

 RS_GRID| Information for grid number                                          4
 RS_GRID|   Bounds   1            -40      39                Points:          80
 RS_GRID|   Bounds   2            -40      39                Points:          80
 RS_GRID|   Bounds   3            -40      39                Points:          80
 RS_GRID| Real space fully replicated
 RS_GRID| Group size                                                           1

  HFX_INFO| Replica ID:                                                        1
  HFX_INFO| FRACTION:                                               0.2500000000
  HFX_INFO| Interaction Potential:                                       COULOMB
  HFX_INFO| EPS_SCHWARZ:                                                 1.0E-10
  HFX_INFO| EPS_SCHWARZ_FORCES                                           1.0E-08
  HFX_INFO| EPS_STORAGE_SCALING:                                         1.0E+00
  HFX_INFO| NBINS:                                                            64
  HFX_INFO| BLOCK_SIZE:                                                        1
  HFX_INFO| Number of periodic shells considered:                           NONE
  HFX_INFO| Number of periodic cells considered:                            NONE


 OVERLAP MATRIX CONDITION NUMBER
 1-Norm Condition Number (Estimate)
   CN : |A|*|A^-1|:  3.639E+001 *  3.293E+004   = 1.198E+006  Log(1-CN):  6.0785
 1-Norm and 2-Norm Condition Numbers using Diagonalization
   CN : |A|*|A^-1|:  3.639E+001 *  3.364E+004   = 1.224E+006  Log(1-CN):  6.0878
   CN : max/min ev:  1.314E+001 /  1.056E-004   = 1.245E+005  Log(2-CN):  5.0952

 Extrapolation method: initial_guess

 Atomic guess: The first density matrix is obtained in terms of atomic orbitals
               and electronic configurations assigned to each atomic kind

 Guess for atomic kind: F

 Electronic structure
    Total number of core electrons                                          0.00
    Total number of valence electrons                                       9.00
    Total number of electrons                                               9.00
    Multiplicity                                                   not specified
    S      2.00  2.00
    P      5.00


 *******************************************************************************
                  Iteration          Convergence                     Energy [au]
 *******************************************************************************
                          1         1.14260                     -98.593987337980
                          2         1.04866                     -98.650291136076
                          3        0.179704E-01                 -98.825537257396
                          4        0.227468E-02                 -98.825614032163
                          5        0.884374E-04                 -98.825614731199
                          6        0.110632E-06                 -98.825614732303

 Energy components [Hartree]           Total Energy ::          -98.825614732303
                                        Band Energy ::          -52.704241314012
                                     Kinetic Energy ::           99.226462099648
                                   Potential Energy ::         -198.052076831951
                                      Virial (-V/T) ::            1.995960277542
                                        Core Energy ::         -138.415499861205
                                          XC Energy ::           -9.587771530587
                                     Coulomb Energy ::           49.177656659489

 Orbital energies  State     L     Occupation   Energy[a.u.]          Energy[eV]

                       1     0          2.000     -24.240505         -659.617685
                       2     0          2.000      -1.040150          -28.303919

                       1     1          5.000      -0.428586          -11.662427


 Total Electron Density at R=0:                                       411.391406

 Guess for atomic kind: O

 Electronic structure
    Total number of core electrons                                          0.00
    Total number of valence electrons                                       8.00
    Total number of electrons                                               8.00
    Multiplicity                                                   not specified
    S      2.00  2.00
    P      4.00


 *******************************************************************************
                  Iteration          Convergence                     Energy [au]
 *******************************************************************************
                          1        0.848674                     -74.203659346590
                          2        0.676538                     -74.224350300929
                          3        0.118146E-01                 -74.325384117638
                          4        0.875023E-03                 -74.325411956579
                          5        0.262407E-04                 -74.325412100097
                          6        0.953985E-07                 -74.325412100225

 Energy components [Hartree]           Total Energy ::          -74.325412100225
                                        Band Energy ::          -40.703914598336
                                     Kinetic Energy ::           74.466117831459
                                   Potential Energy ::         -148.791529931684
                                      Virial (-V/T) ::            1.998110473121
                                        Core Energy ::         -102.666843544964
                                          XC Energy ::           -7.743421966388
                                     Coulomb Energy ::           36.084853411128

 Orbital energies  State     L     Occupation   Energy[a.u.]          Energy[eV]

                       1     0          2.000     -18.799663         -511.564844
                       2     0          2.000      -0.852501          -23.197720

                       1     1          4.000      -0.349897           -9.521179


 Total Electron Density at R=0:                                       292.094851

 Guess for atomic kind: N

 Electronic structure
    Total number of core electrons                                          0.00
    Total number of valence electrons                                       7.00
    Total number of electrons                                               7.00
    Multiplicity                                                   not specified
    S      2.00  2.00
    P      3.00


 *******************************************************************************
                  Iteration          Convergence                     Energy [au]
 *******************************************************************************
                          1        0.369390                     -53.855844969821
                          2        0.273078                     -53.870170065147
                          3        0.611788E-02                 -53.916370559561
                          4        0.258022E-03                 -53.916388709621
                          5        0.100264E-04                 -53.916388753242
                          6        0.664221E-07                 -53.916388753301

 Energy components [Hartree]           Total Energy ::          -53.916388753301
                                        Band Energy ::          -30.277671893433
                                     Kinetic Energy ::           53.943449639882
                                   Potential Energy ::         -107.859838393183
                                      Virial (-V/T) ::            1.999498347125
                                        Core Energy ::          -73.381511064535
                                          XC Energy ::           -6.114835262346
                                     Coulomb Energy ::           25.579957573581

 Orbital energies  State     L     Occupation   Energy[a.u.]          Energy[eV]

                       1     0          2.000     -14.050793         -382.341534
                       2     0          2.000      -0.664480          -18.081407

                       1     1          3.000      -0.282375           -7.683823


 Total Electron Density at R=0:                                       189.469012

 Guess for atomic kind: H

 Electronic structure
    Total number of core electrons                                          0.00
    Total number of valence electrons                                       1.00
    Total number of electrons                                               1.00
    Multiplicity                                                   not specified
    S      1.00


 *******************************************************************************
                  Iteration          Convergence                     Energy [au]
 *******************************************************************************
                          1        0.100530E-01                  -0.443985550189
                          2        0.945329E-03                  -0.444090029920
                          3        0.103025E-03                  -0.444092117382
                          4        0.802727E-07                  -0.444092129626

 Energy components [Hartree]           Total Energy ::           -0.444092129626
                                        Band Energy ::           -0.233486998571
                                     Kinetic Energy ::            0.420413643923
                                   Potential Energy ::           -0.864505773549
                                      Virial (-V/T) ::            2.056321877382
                                        Core Energy ::           -0.493965249450
                                          XC Energy ::           -0.230662915809
                                     Coulomb Energy ::            0.280536035634

 Orbital energies  State     L     Occupation   Energy[a.u.]          Energy[eV]

                       1     0          1.000      -0.233487           -6.353504


 Total Electron Density at R=0:                                         0.246678

 Guess for atomic kind: C

 Electronic structure
    Total number of core electrons                                          0.00
    Total number of valence electrons                                       6.00
    Total number of electrons                                               6.00
    Multiplicity                                                   not specified
    S      2.00  2.00
    P      2.00


 *******************************************************************************
                  Iteration          Convergence                     Energy [au]
 *******************************************************************************
                          1        0.133902                     -37.363061759844
                          2        0.102325                     -37.368472442707
                          3        0.860737E-03                 -37.376215693871
                          4        0.849047E-04                 -37.376216293501
                          5        0.219397E-06                 -37.376216298714

 Energy components [Hartree]           Total Energy ::          -37.376216298714
                                        Band Energy ::          -21.245708131867
                                     Kinetic Energy ::           37.464666877769
                                   Potential Energy ::          -74.840883176484
                                      Virial (-V/T) ::            1.997639093407
                                        Core Energy ::          -50.271057779086
                                          XC Energy ::           -4.736056292831
                                     Coulomb Energy ::           17.630897773203

 Orbital energies  State     L     Occupation   Energy[a.u.]          Energy[eV]

                       1     0          2.000      -9.941022         -270.508975
                       2     0          2.000      -0.490185          -13.338601

                       1     1          2.000      -0.191647           -5.214984


 Total Electron Density at R=0:                                       116.283880
 Re-scaling the density matrix to get the right number of electrons
                  # Electrons              Trace(P)               Scaling factor
                           78                78.000                        1.000

 Number of electrons:                                                         78
 Number of occupied orbitals:                                                 39
 Number of molecular orbitals:                                               354

 Number of orbital functions:                                                354
 Number of independent orbital functions:                                    354


 SCF WAVEFUNCTION OPTIMIZATION

  Step     Update method      Time    Convergence         Total energy    Change
  ------------------------------------------------------------------------------

  HFX_MEM_INFO| Est. max. program size before HFX [MiB]:                     776
 POWELL| Error in trust region
 POWELL| Error in trust region
 POWELL| Error in trust region
 POWELL| Error in trust region
 POWELL| Error in trust region
 POWELL| Error in trust region
 POWELL| Error in trust region
 POWELL| Error in trust region
 POWELL| Error in trust region
 POWELL| Error in trust region
 POWELL| Error in trust region
 POWELL| Error in trust region
 POWELL| Error in trust region
 POWELL| Error in trust region
 POWELL| Error in trust region
 POWELL| Error in trust region
 POWELL| Error in trust region
 POWELL| Error in trust region
 POWELL| Error in trust region
 POWELL| Error in trust region
 POWELL| Error in trust region
 POWELL| Error in trust region
 POWELL| Error in trust region
 POWELL| Error in trust region
 POWELL| Error in trust region
 POWELL| Error in trust region
 POWELL| Error in trust region
 POWELL| Error in trust region
 POWELL| Error in trust region
 POWELL| Error in trust region
 POWELL| Error in trust region
 POWELL| Error in trust region
 POWELL| Error in trust region
 POWELL| Error in trust region
 POWELL| Error in trust region
 POWELL| Error in trust region
 POWELL| Error in trust region
 POWELL| Error in trust region
 POWELL| Error in trust region
 POWELL| Error in trust region
 POWELL| Error in trust region
 POWELL| Error in trust region
 POWELL| Error in trust region
 POWELL| Error in trust region
 POWELL| Error in trust region
 POWELL| Error in trust region
 POWELL| Error in trust region
 POWELL| Error in trust region
 POWELL| Error in trust region
 POWELL| Error in trust region
 POWELL| Error in trust region
 POWELL| Error in trust region
 POWELL| Error in trust region
 POWELL| Error in trust region
 POWELL| Error in trust region
 POWELL| Error in trust region
 POWELL| Error in trust region
 POWELL| Error in trust region
 POWELL| Error in trust region
 POWELL| Error in trust region
 POWELL| Error in trust region
 POWELL| Error in trust region
 POWELL| Error in trust region
 POWELL| Error in trust region
 POWELL| Error in trust region
 POWELL| Error in trust region
 POWELL| Error in trust region
 POWELL| Error in trust region
 POWELL| Error in trust region
 POWELL| Error in trust region
 POWELL| Error in trust region
 POWELL| Error in trust region
 POWELL| Error in trust region
 POWELL| Error in trust region
 POWELL| Error in trust region
 POWELL| Error in trust region
 POWELL| Error in trust region
 POWELL| Error in trust region
 POWELL| Error in trust region
 POWELL| Error in trust region
 POWELL| Error in trust region
 POWELL| Error in trust region
 POWELL| Error in trust region
 POWELL| Error in trust region
 POWELL| Error in trust region
 POWELL| Error in trust region
 POWELL| Error in trust region
 POWELL| Error in trust region
 POWELL| Error in trust region
 POWELL| Error in trust region
 POWELL| Error in trust region
 POWELL| Error in trust region
 POWELL| Error in trust region
 POWELL| Error in trust region
 POWELL| Error in trust region
 POWELL| Error in trust region
 POWELL| Error in trust region
 POWELL| Error in trust region
 POWELL| Error in trust region
 POWELL| Error in trust region
 POWELL| Error in trust region
 POWELL| Error in trust region
 POWELL| Error in trust region
 POWELL| Error in trust region
 POWELL| Error in trust region
 POWELL| Error in trust region
 POWELL| Error in trust region
 POWELL| Error in trust region
 POWELL| Error in trust region
 POWELL| Error in trust region
 POWELL| Error in trust region
 POWELL| Error in trust region
 POWELL| Error in trust region
 POWELL| Error in trust region
 POWELL| Error in trust region
 POWELL| Error in trust region
 POWELL| Error in trust region
 POWELL| Error in trust region
 POWELL| Error in trust region
 POWELL| Error in trust region
 POWELL| Error in trust region
 POWELL| Error in trust region
 POWELL| Error in trust region
 POWELL| Error in trust region
 POWELL| Error in trust region
 POWELL| Error in trust region
 POWELL| Error in trust region
 POWELL| Error in trust region
 POWELL| Error in trust region
 POWELL| Error in trust region
 POWELL| Error in trust region
 POWELL| Error in trust region
 POWELL| Error in trust region
 POWELL| Error in trust region
 POWELL| Error in trust region
 POWELL| Error in trust region
 POWELL| Error in trust region
 POWELL| Error in trust region
 POWELL| Error in trust region
 POWELL| Error in trust region
 POWELL| Error in trust region
 POWELL| Error in trust region
 POWELL| Error in trust region
 POWELL| Error in trust region
 POWELL| Error in trust region
 POWELL| Error in trust region
 POWELL| Error in trust region
 POWELL| Error in trust region
 POWELL| Error in trust region
 POWELL| Error in trust region
 POWELL| Error in trust region
 POWELL| Error in trust region
 POWELL| Error in trust region
 POWELL| Error in trust region
 POWELL| Error in trust region
 POWELL| Error in trust region
 POWELL| Error in trust region
 POWELL| Error in trust region
 POWELL| Error in trust region
 POWELL| Error in trust region
 POWELL| Error in trust region
 POWELL| Error in trust region
 POWELL| Error in trust region
 POWELL| Error in trust region
 POWELL| Error in trust region
 POWELL| Error in trust region
 POWELL| Error in trust region
 POWELL| Error in trust region
 POWELL| Error in trust region
 POWELL| Error in trust region
 POWELL| Error in trust region
 POWELL| Error in trust region
 POWELL| Error in trust region
 POWELL| Error in trust region
 POWELL| Error in trust region
 POWELL| Error in trust region
 POWELL| Error in trust region
 POWELL| Error in trust region
 POWELL| Error in trust region
 POWELL| Error in trust region
 POWELL| Error in trust region
 POWELL| Error in trust region
 POWELL| Error in trust region
 POWELL| Error in trust region
 POWELL| Error in trust region
 POWELL| Error in trust region
 POWELL| Error in trust region
 POWELL| Error in trust region
 POWELL| Error in trust region
 POWELL| Error in trust region
 POWELL| Error in trust region
 POWELL| Error in trust region
  HFX_MEM_INFO| Number of cart. primitive ERI's calculated:         283720532995
  HFX_MEM_INFO| Number of sph. ERI's calculated:                      2295978291
  HFX_MEM_INFO| Number of sph. ERI's stored in-core:                  2295978291
  HFX_MEM_INFO| Number of sph. ERI's stored on disk:                           0
  HFX_MEM_INFO| Number of sph. ERI's calculated on the fly:                    0
  HFX_MEM_INFO| Total memory consumption ERI's RAM [MiB]:                   8259
  HFX_MEM_INFO| Whereof max-vals [MiB]:                                        6
  HFX_MEM_INFO| Total compression factor ERI's RAM:                         2.12
  HFX_MEM_INFO| Total memory consumption ERI's disk [MiB]:                     0
  HFX_MEM_INFO| Total compression factor ERI's disk:                        0.00
  HFX_MEM_INFO| Size of density/Fock matrix [MiB]:                             0
  HFX_MEM_INFO| Size of buffers [MiB]:                                        16
  HFX_MEM_INFO| Est. max. program size after HFX  [MiB]:                    1346

     1 NoMix/Diag. 0.10E+00   23.1     5.04265727      -624.4071666800 -6.24E+02
     2 Broy./Diag. 0.10E+00    1.7     0.32436616      -615.6687603936  8.74E+00
     3 Broy./Diag. 0.10E+00    1.8     0.21364210      -616.3735147176 -7.05E-01
     4 Broy./Diag. 0.10E+00    1.3     0.47970338      -618.8589429619 -2.49E+00
     5 Broy./Diag. 0.10E+00    1.8     0.03995703      -621.0131652226 -2.15E+00
     6 Broy./Diag. 0.10E+00    1.8     0.10998219      -620.9745381073  3.86E-02
     7 Broy./Diag. 0.10E+00    1.6     0.13122242      -621.1067754028 -1.32E-01
     8 Broy./Diag. 0.10E+00    1.8     0.02266066      -621.7316114300 -6.25E-01
     9 Broy./Diag. 0.10E+00    1.8     0.02932180      -621.8353241735 -1.04E-01
    10 Broy./Diag. 0.10E+00    1.5     0.01210303      -621.8500554578 -1.47E-02
    11 Broy./Diag. 0.10E+00    1.6     0.00529533      -621.8941775923 -4.41E-02
    12 Broy./Diag. 0.10E+00    1.3     0.04985409      -621.9909247307 -9.67E-02
    13 Broy./Diag. 0.10E+00    1.7     0.00445168      -622.1909029079 -2.00E-01
    14 Broy./Diag. 0.10E+00    1.8     0.01314773      -622.2295785753 -3.87E-02
    15 Broy./Diag. 0.10E+00    1.6     0.03098203      -622.1928457785  3.67E-02
    16 Broy./Diag. 0.10E+00    1.7     0.00494677      -622.1765087444  1.63E-02
    17 Broy./Diag. 0.10E+00    1.7     0.00544849      -622.1808307846 -4.32E-03
    18 Broy./Diag. 0.10E+00    1.4     0.00664308      -622.1658064410  1.50E-02
    19 Broy./Diag. 0.10E+00    1.5     0.00476140      -622.1439636848  2.18E-02
    20 Broy./Diag. 0.10E+00    1.3     0.01015752      -622.1627361160 -1.88E-02
    21 Broy./Diag. 0.10E+00    1.7     0.00256121      -622.1885018384 -2.58E-02
    22 Broy./Diag. 0.10E+00    1.8     0.00576114      -622.1817754849  6.73E-03
    23 Broy./Diag. 0.10E+00    1.8     0.00724416      -622.1823864348 -6.11E-04
    24 Broy./Diag. 0.10E+00    1.8     0.00262793      -622.1980934026 -1.57E-02
    25 Broy./Diag. 0.10E+00    1.9     0.00328190      -622.1984680559 -3.75E-04
    26 Broy./Diag. 0.10E+00    1.5     0.00346366      -622.1981716306  2.96E-04
    27 Broy./Diag. 0.10E+00    1.6     0.00183476      -622.1978535323  3.18E-04
    28 Broy./Diag. 0.10E+00    1.3     0.00053823      -622.1932951433  4.56E-03
    29 Broy./Diag. 0.10E+00    1.7     0.00176514      -622.1954139236 -2.12E-03
    30 Broy./Diag. 0.10E+00    1.8     0.00065785      -622.1955839941 -1.70E-04
    31 Broy./Diag. 0.10E+00    1.7     0.00027985      -622.1930019159  2.58E-03
    32 Broy./Diag. 0.10E+00    1.8     0.00449413      -622.1920946121  9.07E-04
    33 Broy./Diag. 0.10E+00    1.8     0.00050546      -622.1927979214 -7.03E-04
    34 Broy./Diag. 0.10E+00    1.5     0.00046245      -622.1915737942  1.22E-03
    35 Broy./Diag. 0.10E+00    1.6     0.00070464      -622.1925272498 -9.53E-04
    36 Broy./Diag. 0.10E+00    1.3     0.00052894      -622.1930997408 -5.72E-04
    37 Broy./Diag. 0.10E+00    1.7     0.00046769      -622.1924911637  6.09E-04
    38 Broy./Diag. 0.10E+00    1.7     0.00053998      -622.1926134742 -1.22E-04
    39 Broy./Diag. 0.10E+00    1.8     0.00026792      -622.1924914282  1.22E-04
    40 Broy./Diag. 0.10E+00    1.8     0.00089061      -622.1923203563  1.71E-04
    41 Broy./Diag. 0.10E+00    1.8     0.00039215      -622.1923546857 -3.43E-05
    42 Broy./Diag. 0.10E+00    1.5     0.00072175      -622.1921268143  2.28E-04
    43 Broy./Diag. 0.10E+00    1.7     0.00029106      -622.1923673242 -2.41E-04
    44 Broy./Diag. 0.10E+00    1.3     0.00029215      -622.1926997120 -3.32E-04
    45 Broy./Diag. 0.10E+00    1.8     0.00018530      -622.1925753392  1.24E-04
    46 Broy./Diag. 0.10E+00    1.9     0.00014579      -622.1924326908  1.43E-04
    47 Broy./Diag. 0.10E+00    1.7     0.00006304      -622.1923781197  5.46E-05
    48 Broy./Diag. 0.10E+00    1.9     0.00012566      -622.1923504922  2.76E-05
    49 Broy./Diag. 0.10E+00    1.9     0.00013370      -622.1924050424 -5.46E-05
    50 Broy./Diag. 0.10E+00    1.5     0.00002274      -622.1923848733  2.02E-05
    51 Broy./Diag. 0.10E+00    1.6     0.00004908      -622.1922877257  9.71E-05
    52 Broy./Diag. 0.10E+00    1.3     0.00002600      -622.1923059518 -1.82E-05
    53 Broy./Diag. 0.10E+00    1.8     0.00004040      -622.1923517822 -4.58E-05
    54 Broy./Diag. 0.10E+00    1.8     0.00001410      -622.1923661981 -1.44E-05
    55 Broy./Diag. 0.10E+00    1.8     0.00000698      -622.1923843596 -1.82E-05
    56 Broy./Diag. 0.10E+00    1.9     0.00002276      -622.1923841321  2.28E-07
    57 Broy./Diag. 0.10E+00    2.0     0.00003325      -622.1923832313  9.01E-07
    58 Broy./Diag. 0.10E+00    1.6     0.00000341      -622.1923947530 -1.15E-05
    59 Broy./Diag. 0.10E+00    1.6     0.00001085      -622.1923903646  4.39E-06
    60 Broy./Diag. 0.10E+00    1.4     0.00002689      -622.1923772631  1.31E-05
    61 Broy./Diag. 0.10E+00    1.9     0.00000508      -622.1923725621  4.70E-06
    62 Broy./Diag. 0.10E+00    1.9     0.00000265      -622.1923722421  3.20E-07
    63 Broy./Diag. 0.10E+00    1.7     0.00000596      -622.1923836539 -1.14E-05
    64 Broy./Diag. 0.10E+00    1.9     0.00000602      -622.1923863937 -2.74E-06
    65 Broy./Diag. 0.10E+00    1.8     0.00000179      -622.1923753077  1.11E-05
    66 Broy./Diag. 0.10E+00    1.5     0.00000374      -622.1923762978 -9.90E-07
    67 Broy./Diag. 0.10E+00    1.6     0.00000354      -622.1923758179  4.80E-07
    68 Broy./Diag. 0.10E+00    1.4     0.00000107      -622.1923671466  8.67E-06
    69 Broy./Diag. 0.10E+00    1.7     0.00000194      -622.1923655376  1.61E-06
    70 Broy./Diag. 0.10E+00    1.8     0.00000421      -622.1923626008  2.94E-06
    71 Broy./Diag. 0.10E+00    1.6     0.00000109      -622.1923569703  5.63E-06
    72 Broy./Diag. 0.10E+00    1.8     0.00000082      -622.1923565525  4.18E-07

  *** SCF run converged in    72 steps ***


  Electronic density on regular grids:        -59.6827889704       18.3172110296
  Core density on regular grids:               78.0000000000        0.0000000000
  Hard and soft densities (Lebedev):         -539.1452284760     -520.8280175541
  Total Rho_soft + Rho1_hard - Rho1_soft      -77.9999998923
  Total charge density (r-space):               0.0000001077
  Total Rho_soft + Rho0_soft (g-space):        -0.0000002723

  Overlap energy of the core charge distribution:               0.00000578193277
  Self energy of the core charge distribution:               -588.42644287392000
  Core Hamiltonian energy:                                    -61.46795454510070
  Hartree energy:                                             174.82839815978906
  Exchange-correlation energy:                                -24.66080215530837
  Hartree-Fock Exchange energy:                               -18.19370379044688

  GAPW| Exc from hard and soft atomic rho1:                   -32.55953972002975
  GAPW| local Eh = 1 center integrals:                        -71.71231740943122

  Total energy:                                              -622.19235655251509

 !-----------------------------------------------------------------------------!
                     Mulliken Population Analysis

 #  Atom  Element  Kind  Atomic population                           Net charge
       1     F        1          8.832600                              0.167400
       2     F        1          8.649676                              0.350324
       3     O        2          9.527352                             -1.527352
       4     N        3          8.621813                             -1.621813
       5     H        4          0.080666                              0.919334
       6     C        5          4.925892                              1.074108
       7     C        5          6.190882                             -0.190882
       8     H        4          0.819364                              0.180636
       9     H        4          0.816337                              0.183663
      10     C        5          6.197981                             -0.197981
      11     H        4          0.908257                              0.091743
      12     H        4          0.856613                              0.143387
      13     C        5          6.025610                             -0.025610
      14     H        4          0.897264                              0.102736
      15     C        5          6.027385                             -0.027385
      16     F        1          8.622309                              0.377691
 # Total charge                             78.000000                 -0.000000

 !-----------------------------------------------------------------------------!

 !-----------------------------------------------------------------------------!
                           Hirshfeld Charges

  #Atom  Element  Kind  Ref Charge     Population                    Net charge
      1       F      1       9.000          9.314                        -0.314
      2       F      1       9.000          9.318                        -0.318
      3       O      2       8.000          8.482                        -0.482
      4       N      3       7.000          7.609                        -0.609
      5       H      4       1.000          0.433                         0.567
      6       C      5       6.000          5.662                         0.338
      7       C      5       6.000          6.884                        -0.884
      8       H      4       1.000          0.505                         0.495
      9       H      4       1.000          0.506                         0.494
     10       C      5       6.000          6.885                        -0.885
     11       H      4       1.000          0.510                         0.490
     12       H      4       1.000          0.514                         0.486
     13       C      5       6.000          6.297                        -0.297
     14       H      4       1.000          0.514                         0.486
     15       C      5       6.000          5.237                         0.763
     16       F      1       9.000          9.312                        -0.312

  Total Charge                                                            0.017
 !-----------------------------------------------------------------------------!
  
 -------------------------------------------------------------------------------
 -                                                                             -
 -                          BANDSTRUCTURE CALCULATION                          -
 -                                                                             -
 -------------------------------------------------------------------------------
  
 Number of occupied molecular orbitals (MOs) = Number of occupied bands       39
 Number of unoccupied (= virtual) MOs = Number of unoccupied bands           315
 Number of Gaussian basis functions for MOs                                  354
 K-point mesh for the density of states (DOS) and the self-energy      1   1   1
  
 -------------------------------------------------------------------------------
 -                                                                             -
 -                                GW CALCULATION                               -
 -                                                                             -
 -------------------------------------------------------------------------------
  
 Input: Number of time/freq. points                                           30
 Input: ω_max for fitting Σ(iω) (eV)                                        10.0
 Input: Filter threshold for sparse tensor operations                    1.0E-11
 Input: Apply Hedin shift                                                      F
  
 Number of auxiliary Gaussian basis functions for χ, ε, W                    665
 Cutoff radius for the truncated Coulomb operator in Σ^x:               2645.9 Å
 Cutoff radius for the truncated Coulomb operator in RI metric:            5.0 Å
 Regularization parameter of RI                                          1.0E-02
 Regularization parameter of minimax grids                               1.0E-06
 Lattice sum size for V(k):                                                    3
  
 K-point mesh 1 for χ, ε, W                                            1   1   1
 K-point mesh 2 for χ, ε, W (for k-point extrapolation of W)           1   1   1
 Approximate the k-point extrapolation                                         F
 Group size for tensor operations                                            192
 
 Computed 3-center integrals (µν|P), execution time                        0.3 s
 Percentage of non-zero (µν|P)                                         100.000 %
 Max. distance between µ,ν in non-zero (µν|P)                              5.6 A
 Required memory if storing all 3-center integrals (µν|P)                   0 GB
 
 Number of i and j atoms in M_λνP(τ), N_νλQ(τ):                              146
 Number of inner loop atoms for µ in M_λνP = sum_µ (µν|P) G_µλ                16
 
 SCF direct band gap (eV)                                                   7.48
 Max. SCF eigval diff. (eV)                                             54939.08
 E-Range for minimax grid                                                7343.41
 Number of Padé parameters for analytic continuation:                          4
 
 Computed χ(iτ,k=0) for time point            1 / 30,    Execution time    0.4 s
 Computed χ(iτ,k=0) for time point            2 / 30,    Execution time    0.3 s
 Computed χ(iτ,k=0) for time point            3 / 30,    Execution time    0.3 s
 Computed χ(iτ,k=0) for time point            4 / 30,    Execution time    0.3 s
 Computed χ(iτ,k=0) for time point            5 / 30,    Execution time    0.3 s
 Computed χ(iτ,k=0) for time point            6 / 30,    Execution time    0.3 s
 Computed χ(iτ,k=0) for time point            7 / 30,    Execution time    0.3 s
 Computed χ(iτ,k=0) for time point            8 / 30,    Execution time    0.3 s
 Computed χ(iτ,k=0) for time point            9 / 30,    Execution time    0.3 s
 Computed χ(iτ,k=0) for time point           10 / 30,    Execution time    0.3 s
 Computed χ(iτ,k=0) for time point           11 / 30,    Execution time    0.3 s
 Computed χ(iτ,k=0) for time point           12 / 30,    Execution time    0.3 s
 Computed χ(iτ,k=0) for time point           13 / 30,    Execution time    0.2 s
 Computed χ(iτ,k=0) for time point           14 / 30,    Execution time    0.3 s
 Computed χ(iτ,k=0) for time point           15 / 30,    Execution time    0.3 s
 Computed χ(iτ,k=0) for time point           16 / 30,    Execution time    0.3 s
 Computed χ(iτ,k=0) for time point           17 / 30,    Execution time    0.3 s
 Computed χ(iτ,k=0) for time point           18 / 30,    Execution time    0.3 s
 Computed χ(iτ,k=0) for time point           19 / 30,    Execution time    0.2 s
 Computed χ(iτ,k=0) for time point           20 / 30,    Execution time    0.3 s
 Computed χ(iτ,k=0) for time point           21 / 30,    Execution time    0.2 s
 Computed χ(iτ,k=0) for time point           22 / 30,    Execution time    0.2 s
 Computed χ(iτ,k=0) for time point           23 / 30,    Execution time    0.2 s
 Computed χ(iτ,k=0) for time point           24 / 30,    Execution time    0.3 s
 Computed χ(iτ,k=0) for time point           25 / 30,    Execution time    0.2 s
 Computed χ(iτ,k=0) for time point           26 / 30,    Execution time    0.2 s
 Computed χ(iτ,k=0) for time point           27 / 30,    Execution time    0.2 s
 Computed χ(iτ,k=0) for time point           28 / 30,    Execution time    0.3 s
 Computed χ(iτ,k=0) for time point           29 / 30,    Execution time    0.2 s
 Computed χ(iτ,k=0) for time point           30 / 30,    Execution time    0.3 s
 
 Computed W(iτ,k) for k-point batch           1 /  1,    Execution time    2.9 s
 
 Computed Σ^x(k=0),                                      Execution time    0.4 s
 
 Computed Σ^c(iτ,k=0) for time point          1 / 30,    Execution time    0.5 s
 Computed Σ^c(iτ,k=0) for time point          2 / 30,    Execution time    0.5 s
 Computed Σ^c(iτ,k=0) for time point          3 / 30,    Execution time    0.5 s
 Computed Σ^c(iτ,k=0) for time point          4 / 30,    Execution time    0.5 s
 Computed Σ^c(iτ,k=0) for time point          5 / 30,    Execution time    0.5 s
 Computed Σ^c(iτ,k=0) for time point          6 / 30,    Execution time    0.5 s
 Computed Σ^c(iτ,k=0) for time point          7 / 30,    Execution time    0.4 s
 Computed Σ^c(iτ,k=0) for time point          8 / 30,    Execution time    0.5 s
 Computed Σ^c(iτ,k=0) for time point          9 / 30,    Execution time    0.5 s
 Computed Σ^c(iτ,k=0) for time point         10 / 30,    Execution time    0.5 s
 Computed Σ^c(iτ,k=0) for time point         11 / 30,    Execution time    0.5 s
 Computed Σ^c(iτ,k=0) for time point         12 / 30,    Execution time    0.5 s
 Computed Σ^c(iτ,k=0) for time point         13 / 30,    Execution time    0.4 s
 Computed Σ^c(iτ,k=0) for time point         14 / 30,    Execution time    0.5 s
 Computed Σ^c(iτ,k=0) for time point         15 / 30,    Execution time    0.5 s
 Computed Σ^c(iτ,k=0) for time point         16 / 30,    Execution time    0.5 s
 Computed Σ^c(iτ,k=0) for time point         17 / 30,    Execution time    0.5 s
 Computed Σ^c(iτ,k=0) for time point         18 / 30,    Execution time    0.5 s
 Computed Σ^c(iτ,k=0) for time point         19 / 30,    Execution time    0.4 s
 Computed Σ^c(iτ,k=0) for time point         20 / 30,    Execution time    0.5 s
 Computed Σ^c(iτ,k=0) for time point         21 / 30,    Execution time    0.4 s
 Computed Σ^c(iτ,k=0) for time point         22 / 30,    Execution time    0.4 s
 Computed Σ^c(iτ,k=0) for time point         23 / 30,    Execution time    0.5 s
 Computed Σ^c(iτ,k=0) for time point         24 / 30,    Execution time    0.5 s
 Computed Σ^c(iτ,k=0) for time point         25 / 30,    Execution time    0.5 s
 Computed Σ^c(iτ,k=0) for time point         26 / 30,    Execution time    0.5 s
 Computed Σ^c(iτ,k=0) for time point         27 / 30,    Execution time    0.5 s
 Computed Σ^c(iτ,k=0) for time point         28 / 30,    Execution time    0.5 s
 Computed Σ^c(iτ,k=0) for time point         29 / 30,    Execution time    0.5 s
 Computed Σ^c(iτ,k=0) for time point         30 / 30,    Execution time    0.4 s
 
 Sparsity of Σ^c(iτ,k=0): Percentage of skipped atom pairs:                0.0 %

 
 SCF valence band maximum (eV):                                           -7.818
 SCF conduction band minimum (eV):                                        -0.336
 SCF indirect band gap (eV):                                               7.481
 SCF direct band gap (eV):                                                 7.481
 
 G0W0 valence band maximum (eV):                                          -9.534
 G0W0 conduction band minimum (eV):                                        0.656
 G0W0 indirect band gap (eV):                                             10.190
 G0W0 direct band gap (eV):                                               10.190
 
 Hartree-Fock with SCF orbitals valence band maximum (eV):               -11.338
 Hartree-Fock with SCF orbitals conduction band minimum (eV)               1.450
 Hartree-Fock with SCF orbitals indirect band gap (eV):                   12.788
 Hartree-Fock with SCF orbitals direct band gap (eV):                     12.788

 ENERGY| Total FORCE_EVAL ( QS ) energy [hartree]           -622.192356552515093

 -------------------------------------------------------------------------------
 -                                                                             -
 -                                DBCSR STATISTICS                             -
 -                                                                             -
 -------------------------------------------------------------------------------
 COUNTER                                    TOTAL       BLAS       SMM       ACC
 flops     9 x     9 x     2               489888     100.0%      0.0%      0.0%     
 flops     9 x    30 x     2              2332800     100.0%      0.0%      0.0%     
 flops    30 x     9 x     2              2332800     100.0%      0.0%      0.0%     
 flops    30 x    30 x     2             14256000     100.0%      0.0%      0.0%     
 flops     9 x     9 x    32             86220288     100.0%      0.0%      0.0%     
 flops     9 x    30 x    32            410572800     100.0%      0.0%      0.0%     
 flops    30 x     9 x    32            410572800     100.0%      0.0%      0.0%     
 flops    30 x    30 x    32           2509056000     100.0%      0.0%      0.0%     
 flops inhomo. stacks                           0       0.0%      0.0%      0.0%
 flops total                         3.435833E+09     100.0%      0.0%      0.0%
 flops max/rank                     91.756800E+06     100.0%      0.0%      0.0%
 matmuls inhomo. stacks                         0       0.0%      0.0%      0.0%
 matmuls total                             117504     100.0%      0.0%      0.0%
 number of processed stacks                114048     100.0%      0.0%      0.0%
 average stack size                                     1.0       0.0       0.0
 marketing flops                   703.773952E+06
 -------------------------------------------------------------------------------
 # multiplications                             72
 max memory usage/rank              19.544363E+09
 # max total images/rank                        3
 # max 3D layers                                1
 # MPI messages exchanged                  608256
 MPI messages size (bytes):
  total size                         2.165460E+09
  min size                           0.000000E+00
  max size                          23.040000E+03
  average size                       3.560114E+03
 MPI breakdown and total messages size (bytes):
             size <=      128              372384                        0
       128 < size <=     8192              144792                682532352
      8192 < size <=    32768               91080               1482928128
     32768 < size <=   131072                   0                        0
    131072 < size <=  4194304                   0                        0
   4194304 < size <= 16777216                   0                        0
  16777216 < size                               0                        0
 -------------------------------------------------------------------------------

 *** WARNING in dbcsr_mm.F:301 :: Using a non-square number of MPI ranks ***
 *** might lead to poor performance. Used ranks: 192 Suggested: 196 400  ***

 -------------------------------------------------------------------------------
 -                                                                             -
 -                      DBCSR MESSAGE PASSING PERFORMANCE                      -
 -                                                                             -
 -------------------------------------------------------------------------------
 ROUTINE             CALLS      AVE VOLUME [Bytes]
 MP_Bcast                9                     12.
 MP_Allreduce          468                      9.
 MP_Alltoall          5438                  99207.
 MP_ISend             6768                   2860.
 MP_IRecv             6912                   2480.
 -------------------------------------------------------------------------------

 -------------------------------------------------------------------------------
 -                                                                             -
 -                                DBM STATISTICS                               -
 -                                                                             -
 -------------------------------------------------------------------------------
    M  x    N  x    K                                          COUNT     PERCENT
    ?  x    ?  x    ?                                          50560      46.44%
 >999  x   ??  x   ??                                          12100      11.11%
 >999  x    ?  x   ??                                           7260       6.67%
 >999  x   ??  x    ?                                           7260       6.67%
   ??  x   ??  x >999                                           6100       5.60%
 >999  x    ?  x    ?                                           4356       4.00%
    ?  x   ??  x >999                                           3660       3.36%
   ??  x    ?  x >999                                           3660       3.36%
    ?  x    ?  x >999                                           2196       2.02%
    ?  x  ???  x   ??                                           1860       1.71%
   ??  x  ???  x   ??                                           1860       1.71%
    ?  x   ??  x  ???                                           1800       1.65%
   ??  x   ??  x  ???                                           1800       1.65%
    ?  x  ???  x    ?                                           1116       1.03%
   ??  x  ???  x    ?                                           1116       1.03%
    ?  x    ?  x  ???                                           1080       0.99%
   ??  x    ?  x  ???                                           1080       0.99%
 -------------------------------------------------------------------------------

 -------------------------------------------------------------------------------
 -                                                                             -
 -                                GRID STATISTICS                              -
 -                                                                             -
 -------------------------------------------------------------------------------
 LP    KERNEL             BACKEND                              COUNT     PERCENT
 3     collocate ortho    CPU                                  14600      19.64%
 3     integrate ortho    CPU                                  14600      19.64%
 6     collocate ortho    CPU                                   7592      10.21%
 6     integrate ortho    CPU                                   7592      10.21%
 0     collocate ortho    CPU                                   4891       6.58%
 0     integrate ortho    CPU                                   4891       6.58%
 1     collocate ortho    CPU                                   4453       5.99%
 4     collocate ortho    CPU                                   4453       5.99%
 1     integrate ortho    CPU                                   4453       5.99%
 4     integrate ortho    CPU                                   4453       5.99%
 2     collocate general  CPU                                   1168       1.57%
 2     integrate general  CPU                                   1168       1.57%
 0     collocate general  CPU                                     16       0.02%
 0     integrate general  CPU                                     16       0.02%
 -------------------------------------------------------------------------------

 -------------------------------------------------------------------------------
 -                                                                             -
 -                          OFFLOAD MEMPOOL STATISTICS                         -
 -                                                                             -
 -------------------------------------------------------------------------------
 Memory consumption                Number of allocations  Used [MiB]  Size [MiB]
 Host                                                121          48          84
 -------------------------------------------------------------------------------

 MEMORY| Estimated peak process memory [MiB]                                1636

 -------------------------------------------------------------------------------
 ----                             MULTIGRID INFO                            ----
 -------------------------------------------------------------------------------
 count for grid        1:       37909363          cutoff [a.u.]          250.00
 count for grid        2:        7936834          cutoff [a.u.]           83.33
 count for grid        3:        5361914          cutoff [a.u.]           27.78
 count for grid        4:        1776139          cutoff [a.u.]            9.26
 total gridlevel count  :       52984250

 -------------------------------------------------------------------------------
 -                                                                             -
 -                         MESSAGE PASSING PERFORMANCE                         -
 -                                                                             -
 -------------------------------------------------------------------------------

 ROUTINE             CALLS      AVE VOLUME [Bytes]
 MP_Group             3033
 MP_Bcast             8009                 187702.
 MP_Allreduce        25112                  10963.
 MP_Sync              3889
 MP_Alltoall          4186                6189376.
 MP_SendRecv         27886                  69520.
 MP_ISendRecv        56154                  41702.
 MP_Wait             84995
 MP_comm_split        1622
 MP_ISend            33663                 316308.
 MP_IRecv            35435                 300910.
 -------------------------------------------------------------------------------


 -------------------------------------------------------------------------------
 -                                                                             -
 -                           R E F E R E N C E S                               -
 -                                                                             -
 -------------------------------------------------------------------------------
 
 CP2K version 2025.2 (Development Version), the CP2K developers group (2025).
 CP2K is freely available from https://www.cp2k.org/ .
 
 M. Graml, K. Zollner, D. Hernangómez-Pérez, P. E. Faria Junior, J. Wilhelm.
 J. Chem. Theory Comput. 20, 2202-2208 (2024).
 Low-scaling GW algorithm applied to twisted transition-metal dichalcogenide 
 heterobilayers.
 https://doi.org/10.1021/acs.jctc.3c01230

 T. D. Kuehne, M. Iannuzzi, M. Del Ben, V. V. Rybkin, P. Seewald, F. Stein, T. 
 Laino, R. Z. Khaliullin, O. Schuett, F. Schiffmann, D. Golze, J. Wilhelm, S. 
 Chulkov, M. H. Bani-Hashemian, V. Weber, U. Borstnik, M. Taillefumier, A. S. 
 Jakobovits, A. Lazzaro, H. Pabst, T. Mueller, R. Schade, M. Guidon, S. 
 Andermatt, N. Holmberg, G. K. Schenter, A. Hehn, A. Bussy, F. Belleflamme, G. 
 Tabacchi, A. Gloess, M. Lass, I. Bethune, C. J. Mundy, C. Plessl, M. Watkins, 
 J. VandeVondele, M. Krack, J. Hutter.
 J. Chem. Phys. 152, 194103 (2020).
 CP2K: An electronic structure and molecular dynamics software package - 
 Quickstep: Efficient and accurate electronic structure calculations.
 https://doi.org/10.1063/5.0007045

 O. Schuett, P. Messmer, J. Hutter, J. VandeVondele.
 Electronic Structure Calculations on Graphics Processing Units, 173-190 (2016).
 GPU-Accelerated Sparse Matrix-Matrix Multiplication for Linear Scaling Density 
 Functional Theory.
 https://doi.org/10.1002/9781118670712.ch8

 A. Heinecke, G. Henry, M. Hutchinson, H. Pabst.
 Proceedings of Intl. Supercomputing Conference, 981-991 (2016).
 LIBXSMM: Accelerating Small Matrix Multiplications by Runtime Code Generation.
 https://doi.org/10.1109/SC.2016.83

 J. Hutter, M. Iannuzzi, F. Schiffmann, J. VandeVondele.
 WIREs Comput Mol Sci. 4, 15-25 (2014).
 CP2K: atomistic simulations of condensed matter systems.
 https://doi.org/10.1002/wcms.1159

 U. Borstnik, J. VandeVondele, V. Weber, J. Hutter.
 Parallel Comput. 40, 47-58 (2014).
 Sparse matrix multiplication: The distributed block-compressed sparse row 
 library.
 https://doi.org/10.1016/j.parco.2014.03.012

 A. Marek, V. Blum, R. Johanni, V. Havu, B. Lang, T. Auckenthaler, A. Heinecke, 
 H. Bungartz, H. Lederer.
 J. Phys. Condens. Matter 26, 213201 (2014).
 The ELPA library: scalable parallel eigenvalue solutions for electronic 
 structure theory and computational science.
 https://doi.org/10.1088/0953-8984/26/21/213201

 M. Guidon, J. Hutter, J. VandeVondele.
 J. Chem. Theory Comput. 5, 3010-3021 (2009).
 Robust Periodic Hartree-Fock Exchange for Large-Scale Simulations Using 
 Gaussian Basis Sets.
 https://doi.org/10.1021/ct900494g

 M. Guidon, F. Schiffmann, J. Hutter, J. VandeVondele.
 J. Chem. Phys. 128, 214104 (2008).
 Ab initio molecular dynamics using hybrid density functionals.
 https://doi.org/10.1063/1.2931945

 L. Genovese, T. Deutsch, S. Goedecker.
 J. Chem. Phys. 127, 054704 (2007).
 Efficient and accurate three-dimensional Poisson solver for surface problems.
 https://doi.org/10.1063/1.2754685

 J. VandeVondele, J. Hutter.
 J. Chem. Phys. 127, 114105 (2007).
 Gaussian basis sets for accurate calculations on molecular systems in gas and 
 condensed phases.
 https://doi.org/10.1063/1.2770708

 L. Genovese, T. Deutsch, A. Neelov, S. Goedecker, G. Beylkin.
 J. Chem. Phys. 125, 074105 (2006).
 Efficient solution of Poisson's equation with free boundary conditions.
 https://doi.org/10.1063/1.2335442

 M. Frigo, S. G. Johnson.
 Proc. IEEE 93, 216-231 (2005).
 The design and implementation of FFTW3.
 https://doi.org/10.1109/JPROC.2004.840301

 M. Krack, M. Parrinello.
 Phys. Chem. Chem. Phys. 2, 2105-2112 (2000).
 All-electron ab-initio molecular dynamics.
 https://doi.org/10.1039/b001167n

 G. Lippert, J. Hutter, M. Parrinello.
 Theor. Chem. Acc. 103, 124-140 (1999).
 The Gaussian and augmented-plane-wave density functional method for ab initio 
 molecular dynamics simulations.
 https://doi.org/10.1007/s002140050523

 J. P. Perdew, K. Burke, M. Ernzerhof.
 Phys. Rev. Lett. 77, 3865-3868 (1996).
 Generalized gradient approximation made simple.
 https://doi.org/10.1103/PhysRevLett.77.3865


 -------------------------------------------------------------------------------
 -                                                                             -
 -                                T I M I N G                                  -
 -                                                                             -
 -------------------------------------------------------------------------------
 SUBROUTINE                       CALLS  ASD         SELF TIME        TOTAL TIME
                                MAXIMUM       AVERAGE  MAXIMUM  AVERAGE  MAXIMUM
 CP2K                                 1  1.0    0.016    0.030  174.067  174.076
 qs_energies                          1  2.0    0.000    0.000  173.721  173.729
 scf_env_do_scf                       1  3.0    0.000    0.000  142.267  142.274
 scf_env_do_scf_inner_loop           72  4.0    0.001    0.003  142.267  142.274
 qs_ks_build_kohn_sham_matrix        73  7.0    0.010    0.012  126.022  126.035
 qs_ks_update_qs_env                 72  5.0    0.001    0.001  124.560  124.574
 rebuild_ks_matrix                   72  6.0    0.000    0.000  124.555  124.568
 pw_poisson_solve                    73  8.0    0.131    0.210   70.350   70.382
 mp_alltoall_d11v                  2794 10.6   39.946   40.842   39.946   40.842
 qs_energies_properties               1  3.0    0.000    0.000   28.628   28.634
 post_scf_bandstructure               1  4.0    0.000    0.000   28.628   28.634
 gw                                   1  5.0    0.000    0.000   28.487   28.489
 fft_wrap_pw1pw2                   1524 10.0    0.016    0.020   25.981   27.399
 gw_calc_large_cell_Gamma             1  6.0    0.000    0.000   26.350   26.356
 fft_wrap_pw1pw2_250               1086 11.1    0.413    0.502   24.427   25.943
 fft3d_ps                          1524 12.0    2.797    3.987   24.492   25.938
 ps_wavelet_solve                    73  9.0    2.049    2.885   24.643   24.890
 mp_alltoall_z22v                  1524 14.0   20.606   22.110   20.606   22.110
 hfx_ks_matrix                       73  8.0    0.001    0.001   20.977   20.988
 integrate_four_center               73  9.0    1.371    2.426   20.973   20.985
 mp_alltoall_d54                     73 10.0   15.404   17.206   15.404   17.206
 get_Sigma_c                          1  7.0    0.001    0.001   14.356   14.357
 qs_rho_update_rho_low               73  5.0    0.001    0.001   13.491   13.497
 dbt_total                          699  9.0    0.003    0.003   13.429   13.430
 calculate_rho_elec                  73  6.0    0.049    0.074   13.033   13.037
 mp_sync                           3889 12.1    9.285   12.701    9.285   12.701
 dbt_contract                       243  9.9    0.007    0.008   12.261   12.263
 dbt_tas_multiply                   486 12.4    0.001    0.001   12.119   12.120
 qs_vxc_create                       73  8.0    0.001    0.001   11.983   12.111
 xc_vxc_pw_create                    72  9.0    0.074    0.106   11.981   12.110
 dbt_tas_total                      486 13.4    0.039    0.051   12.107   12.108
 yz_to_x                            581 13.2    0.209    0.251   10.264   11.806
 integrate_four_center_main          73 10.0    0.033    0.099   10.374   11.558
 integrate_four_center_bin         5230 11.0   10.342   11.544   10.342   11.544
 x_to_yz                            651 12.9    0.332    0.506   10.833   11.035
 sum_up_and_integrate                73  8.0    0.001    0.001    9.867   10.134
 integrate_v_rspace                  73  9.0    0.002    0.002    9.844   10.113
 mp_waitany                       24052 11.5    7.821   10.031    7.821   10.031
 xc_pw_derive                       432 11.0    0.002    0.003    9.539    9.746
 potential_pw2rs                     73 10.0    0.005    0.006    9.537    9.562
 transfer_pw2rs                     366 10.6    0.003    0.004    8.806    9.336
 density_rs2pw                       73  7.0    0.002    0.003    8.498    9.211
 mp_alltoall_d45                     74 10.0    8.738    9.084    8.738    9.084
 contract_to_Sigma                   61  8.0    0.001    0.001    8.881    8.881
 compute_3c_integrals               152  8.6    0.002    0.003    8.114    8.115
 get_mat_chi_Gamma_tau                1  7.0    0.000    0.001    8.045    8.052
 build_3c_integrals                 156  9.6    3.553    7.335    4.191    8.031
 transfer_pw2rs_250                 147 11.0    0.649    0.870    5.018    6.823
 xc_pw_divergence                    72 10.0    0.001    0.001    6.262    6.366
 xc_rho_set_and_dset_create          72 10.0    0.078    0.098    5.466    5.772
 prepare_gapw_den                    73  8.0    0.001    0.001    5.570    5.631
 calc_screening_functions             1 10.0    4.891    5.014    5.454    5.577
 transfer_rs2pw                     366  8.4    0.006    0.009    4.705    5.364
 transfer_pw2rs_90                   73 12.0    0.116    0.167    2.963    4.902
 grid_collocate_task_list            73  7.0    4.315    4.796    4.315    4.796
 compute_3c_and_contract_W           31  8.0    0.000    0.000    4.745    4.745
 mp_waitall_1                     69061 12.0    2.208    4.498    2.208    4.498
 dbt_tas_dbm                        486 14.4    0.001    0.001    4.040    4.042
 dbm_multiply                       486 16.4    2.938    3.674    2.938    3.674
 mp_sum_d                          6940  6.9    2.935    3.544    2.935    3.544
 gspace_mixing                       71  5.0    0.048    0.072    3.482    3.484
 integrate_vhg0_rspace               73  8.0    0.089    0.121    3.044    3.467
 transfer_rs2pw_250                 147 10.0    0.734    0.845    2.677    3.295
 put_rho0_on_grid                    73  9.0    0.053    0.082    3.184    3.246
 get_W_MIC                            1  7.0    0.000    0.000    3.131    3.131
 compute_W_MIC                        1  8.0    0.000    0.000    3.131    3.131
 compute_fm_W_MIC_freq_j             30  9.0    0.000    0.000    2.830    2.831
 mp_isend_dm3                      2932 11.5    0.694    2.563    0.694    2.563
 dbt_tas_create_split              1618 15.2    0.003    0.004    2.385    2.452
 dbt_tas_create_split_rows_or_c    1618 16.2    0.004    0.005    2.382    2.449
 G_times_3c                          60  8.0    0.000    0.006    2.374    2.379
 qs_scf_new_mos                      72  5.0    0.001    0.001    2.317    2.327
 calculate_rho_atom                 365  9.0    0.318    2.227    0.318    2.227
 cp_cfm_power                        30 10.0    0.000    0.000    2.203    2.211
 cp_cfm_heevd                        32 10.8    0.000    0.000    2.159    2.188
 cp_cfm_heevd_base                   32 11.8    2.159    2.188    2.159    2.188
 cp_fm_diag_elpa                     78  7.1    0.000    0.000    2.167    2.175
 create_and_init_bs_env_for_gw        1  6.0    0.000    0.000    2.137    2.152
 cp_fm_diag_elpa_base                78  8.0    2.059    2.139    2.110    2.145
 dbm_redistribute                   912 14.1    1.492    2.131    1.492    2.131
 mp_sum_dv                        10961  8.7    2.067    2.116    2.067    2.116
 eigensolver_symm                    72  6.0    0.005    0.007    2.060    2.070
 init_scf_run                         1  3.0    0.000    0.000    1.945    1.946
 dbt_tas_mm_2                       182 15.2    0.000    0.001    1.943    1.944
 mp_sum_dm                         3575  7.7    1.679    1.933    1.679    1.933
 broyden_mixing                      71  6.0    1.765    1.820    1.830    1.873
 convert_to_new_pgrid              1458 14.4    0.535    0.919    1.465    1.851
 cp2k_distribution_to_z_slices       73  9.0    0.139    0.169    1.625    1.838
 calculate_vxc_atom                  73  8.0    0.028    0.252    1.826    1.826
 dbt_tas_estimate_result_nze        243 12.9    0.081    0.113    1.785    1.785
 dbt_tas_distribution_new          1774 14.6    0.601    0.640    1.675    1.709
 pw_poisson_rebuild                  73  9.0    0.000    0.000    1.678    1.696
 ps_wavelet_create                    1 10.0    0.000    0.000    1.678    1.696
 RS_z_slice_distribution              1 11.0    0.103    0.112    1.678    1.696
 scf_env_initial_rho_setup            1  4.0    0.000    0.000    1.644    1.683
 gaVxcgb_GC                         288  9.0    0.021    1.507    0.021    1.507
 compute_V_xc                         1  7.0    0.000    0.000    1.469    1.469
 reshape_mm_small                   486 14.4    0.025    0.028    1.405    1.442
 transfer_rs2pw_90                   73  9.0    0.151    0.223    1.282    1.429
 reshape_mm_compatible              486 14.4    0.006    0.007    1.231    1.278
 fft_wrap_pw1pw2_90                 146 10.5    0.016    0.022    1.032    1.260
 change_split                       729 14.9    0.002    0.007    1.206    1.252
 mp_bcast_i                        2211 13.1    1.166    1.168    1.166    1.168
 abc_contract_xsmm                70280 10.6    0.428    1.104    0.428    1.104
 dbt_tas_mm_3N                       62 15.5    0.000    0.000    0.960    1.085
 parallel_gemm_fm_cosma             328  8.3    1.012    1.056    1.012    1.056
 mp_sum_l                          3069 13.8    0.814    1.044    0.814    1.044
 calc_pair_dist_radii                 1 10.0    0.541    0.600    0.981    1.043
 powell_optimize                 999155 11.0    1.002    1.041    1.002    1.041
 parallel_gemm_cfm                  285 10.4    0.000    0.000    0.932    0.962
 parallel_gemm_cfm_cosma            285 11.4    0.931    0.962    0.931    0.962
 mp_irecv_dm3                      2932 11.5    0.090    0.929    0.090    0.929
 transfer_pw2rs_30                   73 12.0    0.157    0.203    0.660    0.926
 xc_functional_eval                 648 10.9    0.001    0.001    0.485    0.860
 pbe_lda_eval                       648 11.9    0.485    0.859    0.485    0.859
 fm_to_local_tensor                 152  8.0    0.002    0.002    0.852    0.857
 dbt_copy                           456 10.1    0.005    0.005    0.567    0.855
 qs_energies_init_hamiltonians        1  3.0    0.000    0.000    0.840    0.840
 build_core_hamiltonian_matrix        1  4.0    0.000    0.000    0.823    0.823
 overlap_condnum                      1  5.0    0.000    0.000    0.820    0.823
 mp_waitall_2                      2978 16.0    0.526    0.777    0.526    0.777
 dbt_tas_reshape                    638 14.5    0.006    0.008    0.547    0.742
 transfer_rs2pw_30                   73  9.0    0.296    0.323    0.623    0.712
 rs_grid_zero                       367 11.2    0.490    0.668    0.490    0.668
 mp_comm_dup                       1379 17.6    0.583    0.656    0.583    0.656
 dbt_reshape                        274 10.9    0.128    0.212    0.441    0.651
 compute_cfm_W_ikp_freq_j            30 10.0    0.000    0.001    0.571    0.577
 dbt_tas_replicate                  486 14.4    0.031    0.057    0.439    0.567
 dbt_tas_communicate_buffer        1124 16.5    0.010    0.018    0.360    0.545
 grid_integrate_task_list            73 10.0    0.068    0.544    0.068    0.544
 mp_alltoall_i                     1917 14.5    0.508    0.535    0.508    0.535
 pw_derive                          651 11.3    0.456    0.524    0.456    0.524
 dbm_reserve_blocks                2920 15.9    0.288    0.521    0.288    0.521
 dbt_tas_reserve_blocks_index      2434 15.0    0.002    0.003    0.285    0.516
 mp_comm_split_direct              1620 17.2    0.512    0.514    0.512    0.514
 pw_copy                           1090 10.6    0.449    0.513    0.449    0.513
 rs_gather_matrices                  73 10.0    0.001    0.005    0.237    0.511
 copy_dbcsr_to_fm                   266  8.4    0.002    0.003    0.480    0.506
 mp_bcast_dm                       2337  9.0    0.483    0.489    0.483    0.489
 mp_sendrecv_dv                   27886 10.0    0.394    0.488    0.394    0.488
 calculate_rho_atom_coeff            73  6.0    0.034    0.085    0.457    0.459
 dbt_create_matrix                  152  9.0    0.001    0.001    0.451    0.458
 mp_alltoall_z11v                   292 13.5    0.398    0.454    0.398    0.454
 cp_fm_write_unformatted            125  9.9    0.226    0.430    0.228    0.447
 pw_gather_p                        727 11.8    0.372    0.446    0.372    0.446
 dbt_tas_copy                       486 13.8    0.094    0.182    0.254    0.440
 compute_QP_energies                  1  7.0    0.000    0.000    0.437    0.439
 dbcsr_complete_redistribute        562  9.5    0.012    0.015    0.409    0.431
 dbt_tas_mm_3T                      122 15.5    0.000    0.000    0.282    0.427
 dbt_tas_mm_1N                      120 15.5    0.000    0.000    0.279    0.423
 dbt_distribution_new_expert        316 10.5    0.002    0.002    0.420    0.421
 G_occ_vir                          121  8.0    0.001    0.001    0.405    0.415
 arnoldi_conjugate_gradient           5  6.0    0.007    0.008    0.413    0.413
 fft_wrap_pw1pw2_30                 146 10.5    0.002    0.003    0.361    0.407
 cp_fm_power                          3  8.7    0.001    0.001    0.391    0.396
 update_ks_atom                      73  8.0    0.024    0.040    0.378    0.394
 get_Sigma_x                          1  7.0    0.000    0.000    0.381    0.381
 compute_Sigma_x                      1  8.0    0.000    0.000    0.381    0.381
 pw_scatter_p                       797 12.1    0.329    0.378    0.329    0.378
 to_ikp_and_mo                       62  8.0    0.000    0.000    0.376    0.376
 fm_Gamma_ao_to_cfm_ikp_mo           62  9.0    0.000    0.000    0.367    0.370
 write_matrix                        91  8.0    0.000    0.000    0.308    0.368
 dbt_communicate_buffer             274 11.9    0.002    0.003    0.220    0.360
 setup_time_and_frequency_minim       1  7.0    0.000    0.000    0.343    0.357
 pw_integral_ab_c1d_c1d_gs           73  9.0    0.092    0.106    0.234    0.355
 mp_cart_create                    3305 14.6    0.312    0.342    0.314    0.344
 pw_poisson_set                      74  9.0    0.001    0.002    0.302    0.333
 dbt_tas_replicate_communicate_     304 15.5    0.001    0.002    0.198    0.332
 mp_isend_dv                      36852 12.6    0.176    0.328    0.176    0.328
 mp_max_i                          1021  6.7    0.239    0.319    0.239    0.319
 fm_write                           121  9.0    0.003    0.056    0.221    0.307
 integrate_four_center_getP          73 10.0    0.011    0.014    0.276    0.299
 dbt_tas_reserve_blocks_templat     972 14.4    0.002    0.004    0.163    0.299
 Vh_1c_gg_integrals                  73  8.0    0.007    0.292    0.261    0.298
 mp_irecv_dv                      34945 12.6    0.035    0.292    0.035    0.292
 check_sparsity_3c                    1  7.0    0.000    0.000    0.284    0.284
 pw_copy_to_array                   727 11.8    0.218    0.283    0.218    0.283
 dbt_tas_reshape_alltoall           638 15.5    0.001    0.001    0.260    0.265
 dbcsr_sym_matrix_vector_mult      3555  7.0    0.016    0.017    0.248    0.264
 integrate_four_center_load          73 10.0    0.000    0.000    0.144    0.259
 hfx_load_balance                     1 11.0    0.000    0.000    0.144    0.259
 xz_to_yz                           146 11.0    0.004    0.008    0.226    0.253
 hfx_load_balance_range               1 12.0    0.000    0.000    0.132    0.247
 multiply_fm_W_MIC_time_with_Mi       2  9.0    0.000    0.000    0.237    0.237
 rs_scatter_matrices                 73  7.0    0.001    0.008    0.038    0.235
 mp_alltoall_i22                    834 10.5    0.189    0.218    0.189    0.218
 yz_to_xz                           146 14.0    0.006    0.032    0.183    0.215
 mp_recv_dv                        4480 10.9    0.001    0.213    0.001    0.213
 write_mo_set_to_restart             72  5.0    0.001    0.005    0.010    0.200
 write_mo_set_low                     4  6.0    0.000    0.000    0.009    0.198
 pw_copy_from_array                 797 12.1    0.123    0.197    0.123    0.197
 mp_cart_sub                        550 10.4    0.184    0.185    0.184    0.185
 pw_axpy                            725  9.3    0.156    0.183    0.156    0.183
 calculate_rho0_atom                365  9.0    0.173    0.181    0.173    0.181
 dbt_tas_replicate_alltoall         304 15.5    0.000    0.000    0.156    0.180
 dbt_tas_reshape_buffer_fill        638 15.5    0.097    0.179    0.097    0.179
 fft_wrap_pw1pw2_10                 146 10.5    0.001    0.001    0.145    0.176
 transfer_pw2rs_10                   73 12.0    0.043    0.048    0.163    0.175
 dbt_reserve_blocks_index           824 12.3    0.001    0.001    0.099    0.175
 qs_init_subsys                       1  2.0    0.001    0.002    0.174    0.174
 dbt_tas_reshape_buffer_obtain      638 15.5    0.075    0.120    0.108    0.171
 dbt_tas_merge                      182 14.2    0.022    0.031    0.140    0.167
 integrate_four_center_dist_KS       73 10.0    0.011    0.015    0.165    0.165
 qs_env_setup                         1  3.0    0.000    0.000    0.163    0.164
 qs_env_rebuild_pw_env                2  3.5    0.000    0.000    0.163    0.164
 pw_env_rebuild                       1  5.0    0.000    0.000    0.162    0.164
 dbcsr_desymmetrize_deep            272  9.4    0.003    0.004    0.138    0.160
 dbcsr_rep_row_to_rep_col_vec      3555  8.0    0.006    0.007    0.074    0.159
 offload_free_buffer                 81  8.4    0.036    0.158    0.036    0.158
 calculate_dm_sparse                 72  6.0    0.000    0.000    0.143    0.151
 cp_dbcsr_plus_fm_fm_t               72  7.0    0.001    0.001    0.143    0.150
 cp_fm_symm                          72  7.0    0.143    0.148    0.143    0.148
 dbt_tas_reshape_communicate_bu     638 15.5    0.004    0.006    0.074    0.147
 pw_zero                            434 10.3    0.116    0.142    0.116    0.142
 pw_grid_setup                        4  6.0    0.000    0.000    0.131    0.133
 pw_grid_setup_internal               4  7.0    0.001    0.001    0.131    0.133
 mp_rank_compare                   1524 13.0    0.124    0.131    0.124    0.131
 dbm_add                            486 14.4    0.054    0.129    0.054    0.129
 transfer_rs2pw_10                   73  9.0    0.050    0.059    0.117    0.125
 get_l_sq_wghts_cos_tf_t_to_w         1  8.0    0.116    0.122    0.116    0.122
 create_qs_kind_set                   1  2.0    0.000    0.000    0.121    0.122
 read_qs_kind                         5  3.0    0.029    0.055    0.121    0.122
 cp_cfm_cholesky_decompose           35 10.7    0.114    0.121    0.114    0.121
 get_l_sq_wghts_sin_tf_t_to_w         1  8.0    0.114    0.119    0.114    0.119
 dbt_tas_merge_communicate_buff     182 15.2    0.001    0.002    0.095    0.118
 get_l_sq_wghts_cos_tf_w_to_t         1  8.0    0.111    0.116    0.112    0.117
 dbcsr_col_vec_to_rep_row          3555  8.0    0.007    0.009    0.079    0.109
 cp_cfm_geeig                         2  7.0    0.000    0.000    0.106    0.106
 dbt_reserve_blocks_index_array     516 12.0    0.001    0.001    0.054    0.105
 dbcsr_multiply_generic              72  8.0    0.002    0.002    0.096    0.099
 parser_read_line                 29463  4.0    0.003    0.003    0.092    0.093
 cp_cfm_cholesky_invert              31 11.0    0.087    0.091    0.087    0.091
 parser_read_line_low                45  5.0    0.001    0.015    0.089    0.090
 broadcast_input_information         45  6.0    0.004    0.004    0.088    0.089
 copy_fm_to_dbcsr                   296  8.5    0.001    0.001    0.072    0.088
 dos_pdos_ldos                        1  5.0    0.000    0.000    0.080    0.084
 dbcsr_add_d                       6288  7.6    0.002    0.002    0.020    0.084
 alloc_block_3c                     156 10.6    0.003    0.012    0.052    0.082
 dbcsr_add_anytype                 6288  8.6    0.003    0.011    0.018    0.082
 cp_fm_uplo_to_full                  81  9.1    0.041    0.081    0.041    0.081
 mp_alltoall_i11v                  1958 10.5    0.036    0.080    0.036    0.080
 dbt_create_new                     158 10.0    0.001    0.001    0.073    0.079
 cp_fm_redistribute_end              78  8.1    0.037    0.072    0.038    0.073
 fill_fm_Sigma_c_Gamma_time           1  8.0    0.000    0.000    0.071    0.071
 dbt_crop                           212 11.0    0.020    0.038    0.036    0.071
 compute_fm_chi_Gamma_freq           30 10.0    0.000    0.001    0.054    0.070
 mp_bcast_b_src                     150  7.6    0.017    0.069    0.017    0.069
 dbcsr_dot                          145  8.0    0.001    0.001    0.028    0.067
 dbcsr_finalize                    8972 11.2    0.006    0.019    0.023    0.065
 calculate_first_density_matrix       1  5.0    0.000    0.000    0.026    0.064
 calculate_atomic_block_dm            1  6.0    0.001    0.001    0.026    0.064
 dbt_pgrid_create_expert            320 11.5    0.001    0.001    0.061    0.063
 create_and_init_bs_env               1  5.0    0.000    0.000    0.061    0.061
 cube_transpose_2                   146 11.0    0.002    0.002    0.034    0.061
 build_3c_integrals_put_dbcsr      1860 10.6    0.027    0.057    0.027    0.057
 vxc_of_r_new                       576  9.0    0.000    0.008    0.001    0.057
 mp_bcast_i_src                     180  7.0    0.052    0.054    0.052    0.054
 dbt_tas_create_new                2345 14.5    0.010    0.051    0.010    0.051
 mp_isendrecv_dv                  55772 12.0    0.022    0.050    0.022    0.050
 pw_grid_remap                        4  8.0    0.001    0.001    0.048    0.049
 cube_transpose_1                   146 14.0    0.001    0.004    0.020    0.049
 dbt_tas_mp_comm                    243 12.9    0.002    0.002    0.048    0.049
 mp_sum_im3                           6  9.5    0.047    0.048    0.047    0.048
 diagonalize_ks_matrix                1  6.0    0.000    0.000    0.048    0.048
 cp_fm_geeig_canon                    1  7.0    0.000    0.000    0.048    0.048
 mp_comm_free                      6915 13.6    0.039    0.044    0.039    0.044
 dbt_nd_mp_comm                     152 10.0    0.000    0.000    0.039    0.041
 multiply_cannon                     72  9.0    0.004    0.005    0.037    0.040
 local_dbt_to_global_mat             91  8.0    0.000    0.000    0.033    0.039
 scf_post_calculation_gpw             1  3.0    0.000    0.000    0.039    0.039
 write_available_results              1  4.0    0.000    0.000    0.039    0.039
 write_mo_free_results                1  5.0    0.001    0.002    0.039    0.039
 mp_bcast_dv                       3557  9.0    0.028    0.038    0.028    0.038
 make_m2s                           144  9.0    0.002    0.002    0.036    0.038
 scale_and_distribute               146 10.0    0.027    0.038    0.027    0.038
 dbcsr_copy                       14846  7.6    0.012    0.025    0.023    0.035
 dbt_copy_nocomm                     30 10.0    0.009    0.018    0.019    0.035
 mp_sum_im                           13  8.4    0.033    0.034    0.033    0.034
 mp_sum_i                           648 14.2    0.028    0.034    0.028    0.034
 dbcsr_merge_all                   7454 12.3    0.009    0.030    0.012    0.034
 compute_MinvVsqrt_Vsqrt              1  9.0    0.000    0.000    0.033    0.033
 mp_bcast_am_src                     45  7.0    0.028    0.029    0.030    0.032
 pw_grid_sort                         4  8.0    0.021    0.021    0.029    0.030
 global_matrix_to_local_matrix      152  9.0    0.001    0.001    0.025    0.030
 compute_proj_mo_on_kind              1  6.0    0.000    0.000    0.030    0.030
 dbcsr_iterator_start             47402  9.0    0.017    0.023    0.021    0.029
 multiply_cannon_loop                72 10.0    0.003    0.003    0.025    0.029
 compute_max_radius                   1  6.0    0.025    0.027    0.025    0.027
 make_images                        144 10.0    0.002    0.002    0.025    0.026
 cp_fm_redistribute_start            78  8.1    0.005    0.005    0.019    0.026
 hybrid_alltoall_any                416 11.0    0.002    0.002    0.010    0.026
 check_for_restart_files              1  7.0    0.025    0.026    0.025    0.026
 dbt_create_template                860  9.9    0.005    0.023    0.005    0.023
 dbcsr_create_new                 17774  8.9    0.013    0.018    0.018    0.023
 rs_grid_create                      79  8.8    0.000    0.000    0.002    0.022
 local_matrix_to_global_matrix       91  9.0    0.000    0.000    0.016    0.022
 offload_create_buffer               81  9.7    0.002    0.022    0.002    0.022
 pw_scale                           289  9.5    0.016    0.021    0.016    0.021
 dbt_tas_merge_alltoall             182 15.2    0.000    0.000    0.019    0.020
 make_images_sizes                  144 11.0    0.000    0.000    0.017    0.020
 send_sizes_1                       152 10.0    0.000    0.000    0.014    0.020
 mp_alltoall_i44                    144 12.0    0.017    0.020    0.017    0.020
 hirshfeld_integration                1  6.0    0.000    0.003    0.019    0.019
 mp_sum_iv                           35  7.8    0.017    0.019    0.017    0.019
 dbcsr_iterator_stop              47402  9.0    0.012    0.016    0.014    0.019
 cp_fm_norm                           2  6.0    0.013    0.018    0.013    0.018
 pw_grid_distribute                   4  8.0    0.004    0.004    0.018    0.018
 dbt_tas_reshape_get_coord          638 15.5    0.002    0.018    0.002    0.018
 dbm_filter                         980 13.5    0.003    0.018    0.003    0.018
 -------------------------------------------------------------------------------

 The number of warnings for this run is : 1
 
 -------------------------------------------------------------------------------
  **** **** ******  **  PROGRAM ENDED AT                 2025-10-25 02:55:20.505
 ***** ** ***  *** **   PROGRAM RAN ON                                    cn0421
 **    ****   ******    PROGRAM RAN BY                                  metdyn02
 ***** **    ** ** **   PROGRAM PROCESS ID                               1555878
  **** **  *******  **  PROGRAM STOPPED IN /scratch/hpc-prf-metdyn/metdyn02_Remi
                                           /04_mol/Benchmark_mol_low_scal/aUKBqs
                                           EOTmq69kFe5R_nOg/5k_set_final_qzvp/OQ
                                           AWOT/DZVP/1e-4/5.0
