SIRIUS 7.7.0, git hash: https://api.github.com/repos/electronic-structure/SIRIUS/git/ref/tags/v7.7.0
 DBCSR| CPU Multiplication driver                                           BLAS (U)
 DBCSR| Multrec recursion limit                                              512 (U)
 DBCSR| Multiplication stack size                                           1000 (D)
 DBCSR| Maximum elements for images                                    UNLIMITED (U)
 DBCSR| Multiplicative factor virtual images                                   1 (U)
 DBCSR| Use multiplication densification                                       T (D)
 DBCSR| Multiplication size stacks                                             3 (U)
 DBCSR| Use memory pool for CPU allocation                                     F (U)
 DBCSR| Number of 3D layers                                               SINGLE (U)
 DBCSR| Use MPI memory allocation                                              F (U)
 DBCSR| Use RMA algorithm                                                      F (U)
 DBCSR| Use Communication thread                                               T (U)
 DBCSR| Communication thread load                                             75 (D)
 DBCSR| MPI: My process id                                                     0
 DBCSR| MPI: Number of processes                                             192
 DBCSR| OMP: Current number of threads                                         4
 DBCSR| OMP: Max number of threads                                             4
 DBCSR| Split modifier for TAS multiplication algorithm                  1.0E+00 (U)


  **** **** ******  **  PROGRAM STARTED AT               2025-10-26 18:53:54.933
 ***** ** ***  *** **   PROGRAM STARTED ON                                cn1303
 **    ****   ******    PROGRAM STARTED BY                              metdyn02
 ***** **    ** ** **   PROGRAM PROCESS ID                               1058514
  **** **  *******  **  PROGRAM STARTED IN /scratch/hpc-prf-metdyn/metdyn02_Remi
                                           /04_mol/Benchmark_mol_low_scal/aUKBqs
                                           EOTmq69kFe5R_nOg/5k_set_final_qzvp/KI
                                           ZKUA/TZVP/1e-5/5.0

 CP2K| version string:                 CP2K version 2025.2 (Development Version)
 CP2K| source code revision number:                                  git:2a4e9c4
 CP2K| cp2kflags: omp libint fftw3 libxc libgrpp elpa parallel scalapack mpi_f08
 CP2K|             cosma xsmm plumed2 spglib sirius libvori libbqb libvdwxc hdf5
 CP2K| is freely available from                            https://www.cp2k.org/
 CP2K| Program compiled at                      Fri Oct 24 04:52:17 PM CEST 2025
 CP2K| Program compiled on                                                login1
 CP2K| Program compiled for                                                local
 CP2K| Data directory path    /opt/software/pc2/EB-SW/software/CP2K/2025.2-foss-
 CP2K| Input file name                                                    GW.inp

 GLOBAL| Force Environment number                                              1
 GLOBAL| Basis set file name            /pc2/groups/hpc-prf-metdyn/metdyn02_Remi
 GLOBAL| Potential file name            /pc2/groups/hpc-prf-metdyn/metdyn02_Remi
 GLOBAL| MM Potential file name                                     MM_POTENTIAL
 GLOBAL| Coordinate file name                                      __STD_INPUT__
 GLOBAL| Method name                                                        CP2K
 GLOBAL| Project name                                                       MoS2
 GLOBAL| Run type                                                         ENERGY
 GLOBAL| FFT library                                                       FFTW3
 GLOBAL| Diagonalization library                                            ELPA
 GLOBAL| Cholesky decomposition library                                ScaLAPACK
 GLOBAL| DGEMM library                                                      BLAS
 GLOBAL| Minimum number of eigenvectors for ELPA usage                        16
 GLOBAL| Orthonormality check for eigenvectors                          DISABLED
 GLOBAL| Matrix multiplication library                                     COSMA
 GLOBAL| All-to-all communication in single precision                          F
 GLOBAL| FFTs using library dependent lengths                                  F
 GLOBAL| Grid backend                                                       AUTO
 GLOBAL| Global print level                                               MEDIUM
 GLOBAL| MPI I/O enabled                                                       T
 GLOBAL| Total number of message passing processes                           192
 GLOBAL| Number of distributed systems (nodes)                                 4
 GLOBAL| Number of threads for this process                                    4
 GLOBAL| This output is from process                                           0
 GLOBAL| OpenMP stack size per thread (OMP_STACKSIZE)                    default
 GLOBAL| CPU model name                          AMD EPYC 9655 96-Core Processor
 GLOBAL| CPUID                                                              1003

 MEMORY| system memory details [Kb]
 MEMORY|                        rank 0           min           max       average
 MEMORY| MemTotal            791038960     791038960     791039096     791039052
 MEMORY| MemFree             752185356     749504692     752431168     751226341
 MEMORY| Buffers                  3180          3164          3180          3168
 MEMORY| Cached                7905916       7778060       8404268       7980579
 MEMORY| Slab                  1699864       1650380       2224024       1920071
 MEMORY| SReclaimable           517732        510264        952272        722825
 MEMORY| MemLikelyFree       760612184     758864396     760722656     759932913


 *** Fundamental physical constants (SI units) ***

 *** Literature: B. J. Mohr and B. N. Taylor,
 ***             CODATA recommended values of the fundamental physical
 ***             constants: 2006, Web Version 5.1
 ***             http://physics.nist.gov/constants

 Speed of light in vacuum [m/s]                             2.99792458000000E+08
 Magnetic constant or permeability of vacuum [N/A**2]       1.25663706143592E-06
 Electric constant or permittivity of vacuum [F/m]          8.85418781762039E-12
 Planck constant (h) [J*s]                                  6.62606896000000E-34
 Planck constant (h-bar) [J*s]                              1.05457162825177E-34
 Elementary charge [C]                                      1.60217648700000E-19
 Electron mass [kg]                                         9.10938215000000E-31
 Electron g factor [ ]                                     -2.00231930436220E+00
 Proton mass [kg]                                           1.67262163700000E-27
 Fine-structure constant                                    7.29735253760000E-03
 Rydberg constant [1/m]                                     1.09737315685270E+07
 Avogadro constant [1/mol]                                  6.02214179000000E+23
 Boltzmann constant [J/K]                                   1.38065040000000E-23
 Atomic mass unit [kg]                                      1.66053878200000E-27
 Bohr radius [m]                                            5.29177208590000E-11

 *** Conversion factors ***

 [u] -> [a.u.]                                              1.82288848426455E+03
 [Angstrom] -> [Bohr] = [a.u.]                              1.88972613288564E+00
 [a.u.] = [Bohr] -> [Angstrom]                              5.29177208590000E-01
 [a.u.] -> [s]                                              2.41888432650478E-17
 [a.u.] -> [fs]                                             2.41888432650478E-02
 [a.u.] -> [J]                                              4.35974393937059E-18
 [a.u.] -> [N]                                              8.23872205491840E-08
 [a.u.] -> [K]                                              3.15774647902944E+05
 [a.u.] -> [kJ/mol]                                         2.62549961709828E+03
 [a.u.] -> [kcal/mol]                                       6.27509468713739E+02
 [a.u.] -> [Pa]                                             2.94210107994716E+13
 [a.u.] -> [bar]                                            2.94210107994716E+08
 [a.u.] -> [atm]                                            2.90362800883016E+08
 [a.u.] -> [eV]                                             2.72113838565563E+01
 [a.u.] -> [Hz]                                             6.57968392072181E+15
 [a.u.] -> [1/cm] (wave numbers)                            2.19474631370540E+05
 [a.u./Bohr**2] -> [1/cm]                                   5.14048714338585E+03
 

 CELL_TOP| Volume [angstrom^3]:                                     27000.000000
 CELL_TOP| Vector a [angstrom    30.000     0.000     0.000   |a| =    30.000000
 CELL_TOP| Vector b [angstrom     0.000    30.000     0.000   |b| =    30.000000
 CELL_TOP| Vector c [angstrom     0.000     0.000    30.000   |c| =    30.000000
 CELL_TOP| Angle (b,c), alpha [degree]:                                90.000000
 CELL_TOP| Angle (a,c), beta  [degree]:                                90.000000
 CELL_TOP| Angle (a,b), gamma [degree]:                                90.000000
 CELL_TOP| Numerically orthorhombic:                                         YES
 CELL_TOP| Periodicity                                                      NONE

 GENERATE|  Preliminary Number of Bonds generated:                             0
 GENERATE|  Achieved consistency in connectivity generation.

 CELL| Volume [angstrom^3]:                                         27000.000000
 CELL| Vector a [angstrom]:      30.000     0.000     0.000   |a| =    30.000000
 CELL| Vector b [angstrom]:       0.000    30.000     0.000   |b| =    30.000000
 CELL| Vector c [angstrom]:       0.000     0.000    30.000   |c| =    30.000000
 CELL| Angle (b,c), alpha [degree]:                                    90.000000
 CELL| Angle (a,c), beta  [degree]:                                    90.000000
 CELL| Angle (a,b), gamma [degree]:                                    90.000000
 CELL| Numerically orthorhombic:                                             YES
 CELL| Periodicity                                                          NONE

 CELL_REF| Volume [angstrom^3]:                                     27000.000000
 CELL_REF| Vector a [angstrom    30.000     0.000     0.000   |a| =    30.000000
 CELL_REF| Vector b [angstrom     0.000    30.000     0.000   |b| =    30.000000
 CELL_REF| Vector c [angstrom     0.000     0.000    30.000   |c| =    30.000000
 CELL_REF| Angle (b,c), alpha [degree]:                                90.000000
 CELL_REF| Angle (a,c), beta  [degree]:                                90.000000
 CELL_REF| Angle (a,b), gamma [degree]:                                90.000000
 CELL_REF| Numerically orthorhombic:                                         YES
 CELL_REF| Periodicity                                                      NONE

 *******************************************************************************
 *******************************************************************************
 **                                                                           **
 **     #####                         ##              ##                      **
 **    ##   ##            ##          ##              ##                      **
 **   ##     ##                       ##            ######                    **
 **   ##     ##  ##   ##  ##   #####  ##  ##   ####   ##    #####    #####    **
 **   ##     ##  ##   ##  ##  ##      ## ##   ##      ##   ##   ##  ##   ##   **
 **   ##  ## ##  ##   ##  ##  ##      ####     ###    ##   ######   ######    **
 **    ##  ###   ##   ##  ##  ##      ## ##      ##   ##   ##       ##        **
 **     #######   #####   ##   #####  ##  ##  ####    ##    #####   ##        **
 **           ##                                                    ##        **
 **                                                                           **
 **                                                ... make the atoms dance   **
 **                                                                           **
 **            Copyright (C) by CP2K developers group (2000-2025)             **
 **                      J. Chem. Phys. 152, 194103 (2020)                    **
 **                                                                           **
 *******************************************************************************

 DFT| Spin restricted Kohn-Sham (RKS) calculation                            RKS
 DFT| Multiplicity                                                             1
 DFT| Number of spin states                                                    1
 DFT| Charge                                                                   0
 DFT| Self-interaction correction (SIC)                                       NO
 DFT| Cutoffs: density                                              1.000000E-10
 DFT|          gradient                                             1.000000E-10
 DFT|          tau                                                  1.000000E-10
 DFT|          cutoff_smoothing_range                               0.000000E+00
 DFT| XC density smoothing                                                  NONE
 DFT| XC derivatives                                                          PW

 FUNCTIONAL| PBE:
 FUNCTIONAL| J.P.Perdew, K.Burke, M.Ernzerhof, Phys. Rev. Letter, vol. 77, n 18,
 FUNCTIONAL|  pp. 3865-3868, (1996)sx=0.750sc=1.000{spin unpolarized}           


 QS| Method:                                                                GAPW
 QS| Density plane wave grid type                        NON-SPHERICAL FULLSPACE
 QS| Number of grid levels:                                                    4
 QS| Density cutoff [a.u.]:                                                250.0
 QS| Multi grid cutoff [a.u.]: 1) grid level                               250.0
 QS|                           2) grid level                                83.3
 QS|                           3) grid level                                27.8
 QS|                           4) grid level                                 9.3
 QS| Grid level progression factor:                                          3.0
 QS| Relative density cutoff [a.u.]:                                        50.0
 QS| Interaction thresholds: eps_pgf_orb:                                1.0E-12
 QS|                         eps_filter_matrix:                          0.0E+00
 QS|                         eps_core_charge:                            1.0E-14
 QS|                         eps_rho_gspace:                             1.0E-12
 QS|                         eps_rho_rspace:                             1.0E-12
 QS|                         eps_gvg_rspace:                             1.0E-06
 QS|                         eps_ppl:                                    1.0E-02
 QS|                         eps_ppnl:                                   1.0E-08
 QS| GAPW|      One center basis from orbital basis primitives
 QS| GAPW|                   eps_fit:                                    1.0E-04
 QS| GAPW|                   eps_iso:                                    1.0E-12
 QS| GAPW|                   eps_svd:                                    1.0E-08
 QS| GAPW|                   eps_cpc:                                    1.0E-12
 QS| GAPW|   atom-r-grid: quadrature:                                     GC_LOG
 QS| GAPW|      atom-s-grid:  max l :                                          8
 QS| GAPW|      max_l_rho0 :                                                   2


 ATOMIC KIND INFORMATION

  1. Atomic kind: O                                     Number of atoms:       2

     Orbital Basis Set                                        aug-TZVP-MOLOPT-ae

       Number of orbital shell sets:                                           2
       Number of orbital shells:                                              16
       Number of primitive Cartesian functions:                               13
       Number of Cartesian basis functions:                                   71
       Number of spherical basis functions:                                   56
       Norm type:                                                              2

       Normalised Cartesian orbitals:

                        Set   Shell   Orbital            Exponent    Coefficient

                          1       1    1s                0.050000       0.000000
                                                         0.148931       0.008771
                                                         0.454433       0.026241
                                                         1.335408       0.005818
                                                         4.395399       0.718493
                                                        12.309450       2.903007
                                                        62.914956       1.320675

                          1       2    2s                0.050000       0.000000
                                                         0.148931       0.036066
                                                         0.454433       0.073646
                                                         1.335408       0.667362
                                                         4.395399      -0.111917
                                                        12.309450      -0.053902
                                                        62.914956      -0.747743

                          1       3    3s                0.050000       0.000000
                                                         0.148931       0.072341
                                                         0.454433       0.339134
                                                         1.335408      -0.296204
                                                         4.395399      -0.066370
                                                        12.309450      -0.509964
                                                        62.914956       0.182030

                          1       4    4s                0.050000       0.000000
                                                         0.148931       0.257390
                                                         0.454433      -0.327789
                                                         1.335408      -0.186757
                                                         4.395399      -0.014958
                                                        12.309450      -0.201401
                                                        62.914956       1.590188

                          1       5    5s                0.050000       0.095896
                                                         0.148931      -0.062439
                                                         0.454433       0.011784
                                                         1.335408      -0.100924
                                                         4.395399       0.000000
                                                        12.309450       0.000000
                                                        62.914956       0.000000

                          1       6    2px               0.050000       0.000000
                                                         0.148931       0.002211
                                                         0.454433      -0.015509
                                                         1.335408       1.487193
                                                         4.395399       2.867225
                                                        12.309450       3.872733
                                                        62.914956     -23.794765
                          1       6    2py               0.050000       0.000000
                                                         0.148931       0.002211
                                                         0.454433      -0.015509
                                                         1.335408       1.487193
                                                         4.395399       2.867225
                                                        12.309450       3.872733
                                                        62.914956     -23.794765
                          1       6    2pz               0.050000       0.000000
                                                         0.148931       0.002211
                                                         0.454433      -0.015509
                                                         1.335408       1.487193
                                                         4.395399       2.867225
                                                        12.309450       3.872733
                                                        62.914956     -23.794765

                          1       7    3px               0.050000       0.000000
                                                         0.148931       0.008518
                                                         0.454433       0.481961
                                                         1.335408       0.085170
                                                         4.395399       0.441215
                                                        12.309450      -1.837950
                                                        62.914956      36.698597
                          1       7    3py               0.050000       0.000000
                                                         0.148931       0.008518
                                                         0.454433       0.481961
                                                         1.335408       0.085170
                                                         4.395399       0.441215
                                                        12.309450      -1.837950
                                                        62.914956      36.698597
                          1       7    3pz               0.050000       0.000000
                                                         0.148931       0.008518
                                                         0.454433       0.481961
                                                         1.335408       0.085170
                                                         4.395399       0.441215
                                                        12.309450      -1.837950
                                                        62.914956      36.698597

                          1       8    4px               0.050000       0.000000
                                                         0.148931       0.138320
                                                         0.454433      -0.034294
                                                         1.335408      -0.042535
                                                         4.395399      -0.295522
                                                        12.309450       0.600610
                                                        62.914956     -10.152534
                          1       8    4py               0.050000       0.000000
                                                         0.148931       0.138320
                                                         0.454433      -0.034294
                                                         1.335408      -0.042535
                                                         4.395399      -0.295522
                                                        12.309450       0.600610
                                                        62.914956     -10.152534
                          1       8    4pz               0.050000       0.000000
                                                         0.148931       0.138320
                                                         0.454433      -0.034294
                                                         1.335408      -0.042535
                                                         4.395399      -0.295522
                                                        12.309450       0.600610
                                                        62.914956     -10.152534

                          1       9    5px               0.050000      -0.000964
                                                         0.148931       0.027417
                                                         0.454433       0.328542
                                                         1.335408       0.651611
                                                         4.395399       0.000000
                                                        12.309450       0.000000
                                                        62.914956       0.000000
                          1       9    5py               0.050000      -0.000964
                                                         0.148931       0.027417
                                                         0.454433       0.328542
                                                         1.335408       0.651611
                                                         4.395399       0.000000
                                                        12.309450       0.000000
                                                        62.914956       0.000000
                          1       9    5pz               0.050000      -0.000964
                                                         0.148931       0.027417
                                                         0.454433       0.328542
                                                         1.335408       0.651611
                                                         4.395399       0.000000
                                                        12.309450       0.000000
                                                        62.914956       0.000000

                          1      10    3dx2              0.050000       0.000000
                                                         0.148931       0.011799
                                                         0.454433       0.037044
                                                         1.335408       1.177796
                                                         4.395399      13.187048
                                                        12.309450      -3.718320
                                                        62.914956     245.407483
                          1      10    3dxy              0.050000       0.000000
                                                         0.148931       0.020436
                                                         0.454433       0.064161
                                                         1.335408       2.040003
                                                         4.395399      22.840637
                                                        12.309450      -6.440319
                                                        62.914956     425.058229
                          1      10    3dxz              0.050000       0.000000
                                                         0.148931       0.020436
                                                         0.454433       0.064161
                                                         1.335408       2.040003
                                                         4.395399      22.840637
                                                        12.309450      -6.440319
                                                        62.914956     425.058229
                          1      10    3dy2              0.050000       0.000000
                                                         0.148931       0.011799
                                                         0.454433       0.037044
                                                         1.335408       1.177796
                                                         4.395399      13.187048
                                                        12.309450      -3.718320
                                                        62.914956     245.407483
                          1      10    3dyz              0.050000       0.000000
                                                         0.148931       0.020436
                                                         0.454433       0.064161
                                                         1.335408       2.040003
                                                         4.395399      22.840637
                                                        12.309450      -6.440319
                                                        62.914956     425.058229
                          1      10    3dz2              0.050000       0.000000
                                                         0.148931       0.011799
                                                         0.454433       0.037044
                                                         1.335408       1.177796
                                                         4.395399      13.187048
                                                        12.309450      -3.718320
                                                        62.914956     245.407483

                          1      11    4dx2              0.050000       0.000000
                                                         0.148931      -0.006399
                                                         0.454433       0.341143
                                                         1.335408       1.062793
                                                         4.395399      -7.656182
                                                        12.309450       6.262545
                                                        62.914956    -198.939864
                          1      11    4dxy              0.050000       0.000000
                                                         0.148931      -0.011084
                                                         0.454433       0.590877
                                                         1.335408       1.840811
                                                         4.395399     -13.260897
                                                        12.309450      10.847045
                                                        62.914956    -344.573952
                          1      11    4dxz              0.050000       0.000000
                                                         0.148931      -0.011084
                                                         0.454433       0.590877
                                                         1.335408       1.840811
                                                         4.395399     -13.260897
                                                        12.309450      10.847045
                                                        62.914956    -344.573952
                          1      11    4dy2              0.050000       0.000000
                                                         0.148931      -0.006399
                                                         0.454433       0.341143
                                                         1.335408       1.062793
                                                         4.395399      -7.656182
                                                        12.309450       6.262545
                                                        62.914956    -198.939864
                          1      11    4dyz              0.050000       0.000000
                                                         0.148931      -0.011084
                                                         0.454433       0.590877
                                                         1.335408       1.840811
                                                         4.395399     -13.260897
                                                        12.309450      10.847045
                                                        62.914956    -344.573952
                          1      11    4dz2              0.050000       0.000000
                                                         0.148931      -0.006399
                                                         0.454433       0.341143
                                                         1.335408       1.062793
                                                         4.395399      -7.656182
                                                        12.309450       6.262545
                                                        62.914956    -198.939864

                          1      12    5dx2              0.050000      -0.000167
                                                         0.148931       0.000910
                                                         0.454433       0.391605
                                                         1.335408       0.205296
                                                         4.395399       0.000000
                                                        12.309450       0.000000
                                                        62.914956       0.000000
                          1      12    5dxy              0.050000      -0.000290
                                                         0.148931       0.001577
                                                         0.454433       0.678279
                                                         1.335408       0.355584
                                                         4.395399       0.000000
                                                        12.309450       0.000000
                                                        62.914956       0.000000
                          1      12    5dxz              0.050000      -0.000290
                                                         0.148931       0.001577
                                                         0.454433       0.678279
                                                         1.335408       0.355584
                                                         4.395399       0.000000
                                                        12.309450       0.000000
                                                        62.914956       0.000000
                          1      12    5dy2              0.050000      -0.000167
                                                         0.148931       0.000910
                                                         0.454433       0.391605
                                                         1.335408       0.205296
                                                         4.395399       0.000000
                                                        12.309450       0.000000
                                                        62.914956       0.000000
                          1      12    5dyz              0.050000      -0.000290
                                                         0.148931       0.001577
                                                         0.454433       0.678279
                                                         1.335408       0.355584
                                                         4.395399       0.000000
                                                        12.309450       0.000000
                                                        62.914956       0.000000
                          1      12    5dz2              0.050000      -0.000167
                                                         0.148931       0.000910
                                                         0.454433       0.391605
                                                         1.335408       0.205296
                                                         4.395399       0.000000
                                                        12.309450       0.000000
                                                        62.914956       0.000000

                          1      13    4fx3              0.050000       0.000000
                                                         0.148931       0.001654
                                                         0.454433       0.066745
                                                         1.335408       2.406605
                                                         4.395399      -5.031344
                                                        12.309450      16.622131
                                                        62.914956       4.775823
                          1      13    4fx2y             0.050000       0.000000
                                                         0.148931       0.003699
                                                         0.454433       0.149247
                                                         1.335408       5.381333
                                                         4.395399     -11.250428
                                                        12.309450      37.168214
                                                        62.914956      10.679064
                          1      13    4fx2z             0.050000       0.000000
                                                         0.148931       0.003699
                                                         0.454433       0.149247
                                                         1.335408       5.381333
                                                         4.395399     -11.250428
                                                        12.309450      37.168214
                                                        62.914956      10.679064
                          1      13    4fxy2             0.050000       0.000000
                                                         0.148931       0.003699
                                                         0.454433       0.149247
                                                         1.335408       5.381333
                                                         4.395399     -11.250428
                                                        12.309450      37.168214
                                                        62.914956      10.679064
                          1      13    4fxyz             0.050000       0.000000
                                                         0.148931       0.006406
                                                         0.454433       0.258503
                                                         1.335408       9.320743
                                                         4.395399     -19.486313
                                                        12.309450      64.377235
                                                        62.914956      18.496681
                          1      13    4fxz2             0.050000       0.000000
                                                         0.148931       0.003699
                                                         0.454433       0.149247
                                                         1.335408       5.381333
                                                         4.395399     -11.250428
                                                        12.309450      37.168214
                                                        62.914956      10.679064
                          1      13    4fy3              0.050000       0.000000
                                                         0.148931       0.001654
                                                         0.454433       0.066745
                                                         1.335408       2.406605
                                                         4.395399      -5.031344
                                                        12.309450      16.622131
                                                        62.914956       4.775823
                          1      13    4fy2z             0.050000       0.000000
                                                         0.148931       0.003699
                                                         0.454433       0.149247
                                                         1.335408       5.381333
                                                         4.395399     -11.250428
                                                        12.309450      37.168214
                                                        62.914956      10.679064
                          1      13    4fyz2             0.050000       0.000000
                                                         0.148931       0.003699
                                                         0.454433       0.149247
                                                         1.335408       5.381333
                                                         4.395399     -11.250428
                                                        12.309450      37.168214
                                                        62.914956      10.679064
                          1      13    4fz3              0.050000       0.000000
                                                         0.148931       0.001654
                                                         0.454433       0.066745
                                                         1.335408       2.406605
                                                         4.395399      -5.031344
                                                        12.309450      16.622131
                                                        62.914956       4.775823

                          1      14    5fx3              0.050000      -0.000035
                                                         0.148931       0.000216
                                                         0.454433       0.256015
                                                         1.335408      -0.160820
                                                         4.395399       0.000000
                                                        12.309450       0.000000
                                                        62.914956       0.000000
                          1      14    5fx2y             0.050000      -0.000077
                                                         0.148931       0.000483
                                                         0.454433       0.572467
                                                         1.335408      -0.359605
                                                         4.395399       0.000000
                                                        12.309450       0.000000
                                                        62.914956       0.000000
                          1      14    5fx2z             0.050000      -0.000077
                                                         0.148931       0.000483
                                                         0.454433       0.572467
                                                         1.335408      -0.359605
                                                         4.395399       0.000000
                                                        12.309450       0.000000
                                                        62.914956       0.000000
                          1      14    5fxy2             0.050000      -0.000077
                                                         0.148931       0.000483
                                                         0.454433       0.572467
                                                         1.335408      -0.359605
                                                         4.395399       0.000000
                                                        12.309450       0.000000
                                                        62.914956       0.000000
                          1      14    5fxyz             0.050000      -0.000134
                                                         0.148931       0.000837
                                                         0.454433       0.991542
                                                         1.335408      -0.622854
                                                         4.395399       0.000000
                                                        12.309450       0.000000
                                                        62.914956       0.000000
                          1      14    5fxz2             0.050000      -0.000077
                                                         0.148931       0.000483
                                                         0.454433       0.572467
                                                         1.335408      -0.359605
                                                         4.395399       0.000000
                                                        12.309450       0.000000
                                                        62.914956       0.000000
                          1      14    5fy3              0.050000      -0.000035
                                                         0.148931       0.000216
                                                         0.454433       0.256015
                                                         1.335408      -0.160820
                                                         4.395399       0.000000
                                                        12.309450       0.000000
                                                        62.914956       0.000000
                          1      14    5fy2z             0.050000      -0.000077
                                                         0.148931       0.000483
                                                         0.454433       0.572467
                                                         1.335408      -0.359605
                                                         4.395399       0.000000
                                                        12.309450       0.000000
                                                        62.914956       0.000000
                          1      14    5fyz2             0.050000      -0.000077
                                                         0.148931       0.000483
                                                         0.454433       0.572467
                                                         1.335408      -0.359605
                                                         4.395399       0.000000
                                                        12.309450       0.000000
                                                        62.914956       0.000000
                          1      14    5fz3              0.050000      -0.000035
                                                         0.148931       0.000216
                                                         0.454433       0.256015
                                                         1.335408      -0.160820
                                                         4.395399       0.000000
                                                        12.309450       0.000000
                                                        62.914956       0.000000

                          1      15    5gx4              0.050000       0.000008
                                                         0.148931       0.000769
                                                         0.454433       0.118509
                                                         1.335408       0.001274
                                                         4.395399       0.000000
                                                        12.309450       0.000000
                                                        62.914956       0.000000
                          1      15    5gx3y             0.050000       0.000022
                                                         0.148931       0.002034
                                                         0.454433       0.313545
                                                         1.335408       0.003370
                                                         4.395399       0.000000
                                                        12.309450       0.000000
                                                        62.914956       0.000000
                          1      15    5gx3z             0.050000       0.000022
                                                         0.148931       0.002034
                                                         0.454433       0.313545
                                                         1.335408       0.003370
                                                         4.395399       0.000000
                                                        12.309450       0.000000
                                                        62.914956       0.000000
                          1      15    5gx2y2            0.050000       0.000029
                                                         0.148931       0.002626
                                                         0.454433       0.404785
                                                         1.335408       0.004351
                                                         4.395399       0.000000
                                                        12.309450       0.000000
                                                        62.914956       0.000000
                          1      15    5gx2yz            0.050000       0.000050
                                                         0.148931       0.004548
                                                         0.454433       0.701109
                                                         1.335408       0.007536
                                                         4.395399       0.000000
                                                        12.309450       0.000000
                                                        62.914956       0.000000
                          1      15    5gx2z2            0.050000       0.000029
                                                         0.148931       0.002626
                                                         0.454433       0.404785
                                                         1.335408       0.004351
                                                         4.395399       0.000000
                                                        12.309450       0.000000
                                                        62.914956       0.000000
                          1      15    5gxy3             0.050000       0.000022
                                                         0.148931       0.002034
                                                         0.454433       0.313545
                                                         1.335408       0.003370
                                                         4.395399       0.000000
                                                        12.309450       0.000000
                                                        62.914956       0.000000
                          1      15    5gxy2z            0.050000       0.000050
                                                         0.148931       0.004548
                                                         0.454433       0.701109
                                                         1.335408       0.007536
                                                         4.395399       0.000000
                                                        12.309450       0.000000
                                                        62.914956       0.000000
                          1      15    5gxyz2            0.050000       0.000050
                                                         0.148931       0.004548
                                                         0.454433       0.701109
                                                         1.335408       0.007536
                                                         4.395399       0.000000
                                                        12.309450       0.000000
                                                        62.914956       0.000000
                          1      15    5gxz3             0.050000       0.000022
                                                         0.148931       0.002034
                                                         0.454433       0.313545
                                                         1.335408       0.003370
                                                         4.395399       0.000000
                                                        12.309450       0.000000
                                                        62.914956       0.000000
                          1      15    5gy4              0.050000       0.000008
                                                         0.148931       0.000769
                                                         0.454433       0.118509
                                                         1.335408       0.001274
                                                         4.395399       0.000000
                                                        12.309450       0.000000
                                                        62.914956       0.000000
                          1      15    5gy3z             0.050000       0.000022
                                                         0.148931       0.002034
                                                         0.454433       0.313545
                                                         1.335408       0.003370
                                                         4.395399       0.000000
                                                        12.309450       0.000000
                                                        62.914956       0.000000
                          1      15    5gy2z2            0.050000       0.000029
                                                         0.148931       0.002626
                                                         0.454433       0.404785
                                                         1.335408       0.004351
                                                         4.395399       0.000000
                                                        12.309450       0.000000
                                                        62.914956       0.000000
                          1      15    5gyz3             0.050000       0.000022
                                                         0.148931       0.002034
                                                         0.454433       0.313545
                                                         1.335408       0.003370
                                                         4.395399       0.000000
                                                        12.309450       0.000000
                                                        62.914956       0.000000
                          1      15    5gz4              0.050000       0.000008
                                                         0.148931       0.000769
                                                         0.454433       0.118509
                                                         1.335408       0.001274
                                                         4.395399       0.000000
                                                        12.309450       0.000000
                                                        62.914956       0.000000

                          2       1    1s            27032.341107       0.827485
                                                      4052.439160       2.350354
                                                       922.349653       2.989583
                                                       261.277359       5.859993
                                                        85.309424       4.920023
                                                        31.080802       6.525964

     RI Auxiliary Basis Set             RI_aug-TZVP-MOLOPT-ae_N_RI_119_s_p_d_f_g

       Number of orbital shell sets:                                          27
       Number of orbital shells:                                              27
       Number of primitive Cartesian functions:                               27
       Number of Cartesian basis functions:                                  162
       Number of spherical basis functions:                                  119
       Norm type:                                                              2

       Normalised Cartesian orbitals:

                        Set   Shell   Orbital            Exponent    Coefficient

                          1       1   14dx2              0.303628       0.204413
                          1       1   14dxy              0.303628       0.354054
                          1       1   14dxz              0.303628       0.354054
                          1       1   14dy2              0.303628       0.204413
                          1       1   14dyz              0.303628       0.354054
                          1       1   14dz2              0.303628       0.204413

                          2       1    1s                0.313134       0.298337

                          3       1    8px               0.481155       0.571211
                          3       1    8py               0.481155       0.571211
                          3       1    8pz               0.481155       0.571211

                          4       1   15dx2              0.569752       0.614978
                          4       1   15dxy              0.569752       1.065173
                          4       1   15dxz              0.569752       1.065173
                          4       1   15dy2              0.569752       0.614978
                          4       1   15dyz              0.569752       1.065173
                          4       1   15dz2              0.569752       0.614978

                          5       1   20fx3              0.618494       0.499412
                          5       1   20fx2y             0.618494       1.116720
                          5       1   20fx2z             0.618494       1.116720
                          5       1   20fxy2             0.618494       1.116720
                          5       1   20fxyz             0.618494       1.934216
                          5       1   20fxz2             0.618494       1.116720
                          5       1   20fy3              0.618494       0.499412
                          5       1   20fy2z             0.618494       1.116720
                          5       1   20fyz2             0.618494       1.116720
                          5       1   20fz3              0.618494       0.499412

                          6       1   25gx4              0.693241       0.406319
                          6       1   25gx3y             0.693241       1.075020
                          6       1   25gx3z             0.693241       1.075020
                          6       1   25gx2y2            0.693241       1.387844
                          6       1   25gx2yz            0.693241       2.403817
                          6       1   25gx2z2            0.693241       1.387844
                          6       1   25gxy3             0.693241       1.075020
                          6       1   25gxy2z            0.693241       2.403817
                          6       1   25gxyz2            0.693241       2.403817
                          6       1   25gxz3             0.693241       1.075020
                          6       1   25gy4              0.693241       0.406319
                          6       1   25gy3z             0.693241       1.075020
                          6       1   25gy2z2            0.693241       1.387844
                          6       1   25gyz3             0.693241       1.075020
                          6       1   25gz4              0.693241       0.406319

                          7       1    2s                0.796361       0.600818

                          8       1    9px               0.914696       1.275076
                          8       1    9py               0.914696       1.275076
                          8       1    9pz               0.914696       1.275076

                          9       1   27hx5              0.922662       0.571128
                          9       1   27hx4y             0.922662       1.713383
                          9       1   27hx4z             0.922662       1.713383
                          9       1   27hx3y2            0.922662       2.617235
                          9       1   27hx3yz            0.922662       4.533184
                          9       1   27hx3z2            0.922662       2.617235
                          9       1   27hx2y3            0.922662       2.617235
                          9       1   27hx2y2z           0.922662       5.852316
                          9       1   27hx2yz2           0.922662       5.852316
                          9       1   27hx2z3            0.922662       2.617235
                          9       1   27hxy4             0.922662       1.713383
                          9       1   27hxy3z            0.922662       4.533184
                          9       1   27hxy2z2           0.922662       5.852316
                          9       1   27hxyz3            0.922662       4.533184
                          9       1   27hxz4             0.922662       1.713383
                          9       1   27hy5              0.922662       0.571128
                          9       1   27hy4z             0.922662       1.713383
                          9       1   27hy3z2            0.922662       2.617235
                          9       1   27hy2z3            0.922662       2.617235
                          9       1   27hyz4             0.922662       1.713383
                          9       1   27hz5              0.922662       0.571128

                         10       1   21fx3              1.022133       1.546487
                         10       1   21fx2y             1.022133       3.458050
                         10       1   21fx2z             1.022133       3.458050
                         10       1   21fxy2             1.022133       3.458050
                         10       1   21fxyz             1.022133       5.989519
                         10       1   21fxz2             1.022133       3.458050
                         10       1   21fy3              1.022133       1.546487
                         10       1   21fy2z             1.022133       3.458050
                         10       1   21fyz2             1.022133       3.458050
                         10       1   21fz3              1.022133       1.546487

                         11       1   16dx2              1.083996       1.895432
                         11       1   16dxy              1.083996       3.282985
                         11       1   16dxz              1.083996       3.282985
                         11       1   16dy2              1.083996       1.895432
                         11       1   16dyz              1.083996       3.282985
                         11       1   16dz2              1.083996       1.895432

                         12       1    3s                1.262532       0.848871

                         13       1   22fx3              1.716659       4.965850
                         13       1   22fx2y             1.716659      11.103979
                         13       1   22fx2z             1.716659      11.103979
                         13       1   22fxy2             1.716659      11.103979
                         13       1   22fxyz             1.716659      19.232655
                         13       1   22fxz2             1.716659      11.103979
                         13       1   22fy3              1.716659       4.965850
                         13       1   22fy2z             1.716659      11.103979
                         13       1   22fyz2             1.716659      11.103979
                         13       1   22fz3              1.716659       4.965850

                         14       1   17dx2              2.056765       5.814104
                         14       1   17dxy              2.056765      10.070323
                         14       1   17dxz              2.056765      10.070323
                         14       1   17dy2              2.056765       5.814104
                         14       1   17dyz              2.056765      10.070323
                         14       1   17dz2              2.056765       5.814104

                         15       1   10px               2.090735       3.583552
                         15       1   10py               2.090735       3.583552
                         15       1   10pz               2.090735       3.583552

                         16       1   26gx4              2.179110       9.477706
                         16       1   26gx3y             2.179110      25.075652
                         16       1   26gx3z             2.179110      25.075652
                         16       1   26gx2y2            2.179110      32.372528
                         16       1   26gx2yz            2.179110      56.070863
                         16       1   26gx2z2            2.179110      32.372528
                         16       1   26gxy3             2.179110      25.075652
                         16       1   26gxy2z            2.179110      56.070863
                         16       1   26gxyz2            2.179110      56.070863
                         16       1   26gxz3             2.179110      25.075652
                         16       1   26gy4              2.179110       9.477706
                         16       1   26gy3z             2.179110      25.075652
                         16       1   26gy2z2            2.179110      32.372528
                         16       1   26gyz3             2.179110      25.075652
                         16       1   26gz4              2.179110       9.477706

                         17       1   23fx3              2.884307      15.960550
                         17       1   23fx2y             2.884307      35.688875
                         17       1   23fx2z             2.884307      35.688875
                         17       1   23fxy2             2.884307      35.688875
                         17       1   23fxyz             2.884307      61.814944
                         17       1   23fxz2             2.884307      35.688875
                         17       1   23fy3              2.884307      15.960550
                         17       1   23fy2z             2.884307      35.688875
                         17       1   23fyz2             2.884307      35.688875
                         17       1   23fz3              2.884307      15.960550

                         18       1    4s                3.454747       1.806019

                         19       1   18dx2              3.924565      18.011281
                         19       1   18dxy              3.924565      31.196454
                         19       1   18dxz              3.924565      31.196454
                         19       1   18dy2              3.924565      18.011281
                         19       1   18dyz              3.924565      31.196454
                         19       1   18dz2              3.924565      18.011281

                         20       1   24fx3              5.093807      57.385216
                         20       1   24fx2y             5.093807     128.317245
                         20       1   24fx2z             5.093807     128.317245
                         20       1   24fxy2             5.093807     128.317245
                         20       1   24fxyz             5.093807     222.251987
                         20       1   24fxz2             5.093807     128.317245
                         20       1   24fy3              5.093807      57.385216
                         20       1   24fy2z             5.093807     128.317245
                         20       1   24fyz2             5.093807     128.317245
                         20       1   24fz3              5.093807      57.385216

                         21       1   11px               5.255486      11.342431
                         21       1   11py               5.255486      11.342431
                         21       1   11pz               5.255486      11.342431

                         22       1   19dx2              7.665259      58.120780
                         22       1   19dxy              7.665259     100.668144
                         22       1   19dxz              7.665259     100.668144
                         22       1   19dy2              7.665259      58.120780
                         22       1   19dyz              7.665259     100.668144
                         22       1   19dz2              7.665259      58.120780

                         23       1    5s               11.971140       4.586820

                         24       1   12px              12.834518      34.626975
                         24       1   12py              12.834518      34.626975
                         24       1   12pz              12.834518      34.626975

                         25       1   13px              30.936808     104.000269
                         25       1   13py              30.936808     104.000269
                         25       1   13pz              30.936808     104.000269

                         26       1    6s               41.209988      11.592096

                         27       1    7s              127.285581      27.008129

       Atomic covalent radius [Angstrom]:                                  0.730

       Atomic van der Waals radius [Angstrom]:                             1.520

     The atoms of this atomic kind are PAW atoms (GAPW):
       Hard Gaussian function radius:                                      1.512
       Rho0 radius:                                                        1.512
       Maximum GTO radius used for PAW projector construction:            24.566

     GAPW Soft Basis Set                                 aug-TZVP-MOLOPT-ae_soft

       Number of orbital shell sets:                                           2
       Number of orbital shells:                                              16
       Number of primitive Cartesian functions:                                5
       Number of Cartesian basis functions:                                   71
       Number of spherical basis functions:                                   56
       Norm type:                                                              2

       Normalised Cartesian orbitals:

                        Set   Shell   Orbital            Exponent    Coefficient

                          1       1    1s                0.050000       0.000000
                                                         0.148931       0.008771
                                                         0.454433       0.026241
                                                         1.335408       0.005818
                                                         4.395399       0.000000

                          1       2    2s                0.050000       0.000000
                                                         0.148931       0.036066
                                                         0.454433       0.073646
                                                         1.335408       0.667362
                                                         4.395399       0.000000

                          1       3    3s                0.050000       0.000000
                                                         0.148931       0.072341
                                                         0.454433       0.339134
                                                         1.335408      -0.296204
                                                         4.395399       0.000000

                          1       4    4s                0.050000       0.000000
                                                         0.148931       0.257390
                                                         0.454433      -0.327789
                                                         1.335408      -0.186757
                                                         4.395399       0.000000

                          1       5    5s                0.050000       0.095896
                                                         0.148931      -0.062439
                                                         0.454433       0.011784
                                                         1.335408      -0.100924
                                                         4.395399       0.000000

                          1       6    2px               0.050000       0.000000
                                                         0.148931       0.002211
                                                         0.454433      -0.015509
                                                         1.335408       1.487193
                                                         4.395399       0.000000
                          1       6    2py               0.050000       0.000000
                                                         0.148931       0.002211
                                                         0.454433      -0.015509
                                                         1.335408       1.487193
                                                         4.395399       0.000000
                          1       6    2pz               0.050000       0.000000
                                                         0.148931       0.002211
                                                         0.454433      -0.015509
                                                         1.335408       1.487193
                                                         4.395399       0.000000

                          1       7    3px               0.050000       0.000000
                                                         0.148931       0.008518
                                                         0.454433       0.481961
                                                         1.335408       0.085170
                                                         4.395399       0.000000
                          1       7    3py               0.050000       0.000000
                                                         0.148931       0.008518
                                                         0.454433       0.481961
                                                         1.335408       0.085170
                                                         4.395399       0.000000
                          1       7    3pz               0.050000       0.000000
                                                         0.148931       0.008518
                                                         0.454433       0.481961
                                                         1.335408       0.085170
                                                         4.395399       0.000000

                          1       8    4px               0.050000       0.000000
                                                         0.148931       0.138320
                                                         0.454433      -0.034294
                                                         1.335408      -0.042535
                                                         4.395399       0.000000
                          1       8    4py               0.050000       0.000000
                                                         0.148931       0.138320
                                                         0.454433      -0.034294
                                                         1.335408      -0.042535
                                                         4.395399       0.000000
                          1       8    4pz               0.050000       0.000000
                                                         0.148931       0.138320
                                                         0.454433      -0.034294
                                                         1.335408      -0.042535
                                                         4.395399       0.000000

                          1       9    5px               0.050000      -0.000964
                                                         0.148931       0.027417
                                                         0.454433       0.328542
                                                         1.335408       0.651611
                                                         4.395399       0.000000
                          1       9    5py               0.050000      -0.000964
                                                         0.148931       0.027417
                                                         0.454433       0.328542
                                                         1.335408       0.651611
                                                         4.395399       0.000000
                          1       9    5pz               0.050000      -0.000964
                                                         0.148931       0.027417
                                                         0.454433       0.328542
                                                         1.335408       0.651611
                                                         4.395399       0.000000

                          1      10    3dx2              0.050000       0.000000
                                                         0.148931       0.011799
                                                         0.454433       0.037044
                                                         1.335408       1.177796
                                                         4.395399       0.000000
                          1      10    3dxy              0.050000       0.000000
                                                         0.148931       0.020436
                                                         0.454433       0.064161
                                                         1.335408       2.040003
                                                         4.395399       0.000000
                          1      10    3dxz              0.050000       0.000000
                                                         0.148931       0.020436
                                                         0.454433       0.064161
                                                         1.335408       2.040003
                                                         4.395399       0.000000
                          1      10    3dy2              0.050000       0.000000
                                                         0.148931       0.011799
                                                         0.454433       0.037044
                                                         1.335408       1.177796
                                                         4.395399       0.000000
                          1      10    3dyz              0.050000       0.000000
                                                         0.148931       0.020436
                                                         0.454433       0.064161
                                                         1.335408       2.040003
                                                         4.395399       0.000000
                          1      10    3dz2              0.050000       0.000000
                                                         0.148931       0.011799
                                                         0.454433       0.037044
                                                         1.335408       1.177796
                                                         4.395399       0.000000

                          1      11    4dx2              0.050000       0.000000
                                                         0.148931      -0.006399
                                                         0.454433       0.341143
                                                         1.335408       1.062793
                                                         4.395399       0.000000
                          1      11    4dxy              0.050000       0.000000
                                                         0.148931      -0.011084
                                                         0.454433       0.590877
                                                         1.335408       1.840811
                                                         4.395399       0.000000
                          1      11    4dxz              0.050000       0.000000
                                                         0.148931      -0.011084
                                                         0.454433       0.590877
                                                         1.335408       1.840811
                                                         4.395399       0.000000
                          1      11    4dy2              0.050000       0.000000
                                                         0.148931      -0.006399
                                                         0.454433       0.341143
                                                         1.335408       1.062793
                                                         4.395399       0.000000
                          1      11    4dyz              0.050000       0.000000
                                                         0.148931      -0.011084
                                                         0.454433       0.590877
                                                         1.335408       1.840811
                                                         4.395399       0.000000
                          1      11    4dz2              0.050000       0.000000
                                                         0.148931      -0.006399
                                                         0.454433       0.341143
                                                         1.335408       1.062793
                                                         4.395399       0.000000

                          1      12    5dx2              0.050000      -0.000167
                                                         0.148931       0.000910
                                                         0.454433       0.391605
                                                         1.335408       0.205296
                                                         4.395399       0.000000
                          1      12    5dxy              0.050000      -0.000290
                                                         0.148931       0.001577
                                                         0.454433       0.678279
                                                         1.335408       0.355584
                                                         4.395399       0.000000
                          1      12    5dxz              0.050000      -0.000290
                                                         0.148931       0.001577
                                                         0.454433       0.678279
                                                         1.335408       0.355584
                                                         4.395399       0.000000
                          1      12    5dy2              0.050000      -0.000167
                                                         0.148931       0.000910
                                                         0.454433       0.391605
                                                         1.335408       0.205296
                                                         4.395399       0.000000
                          1      12    5dyz              0.050000      -0.000290
                                                         0.148931       0.001577
                                                         0.454433       0.678279
                                                         1.335408       0.355584
                                                         4.395399       0.000000
                          1      12    5dz2              0.050000      -0.000167
                                                         0.148931       0.000910
                                                         0.454433       0.391605
                                                         1.335408       0.205296
                                                         4.395399       0.000000

                          1      13    4fx3              0.050000       0.000000
                                                         0.148931       0.001654
                                                         0.454433       0.066745
                                                         1.335408       2.406605
                                                         4.395399      -5.031344
                          1      13    4fx2y             0.050000       0.000000
                                                         0.148931       0.003699
                                                         0.454433       0.149247
                                                         1.335408       5.381333
                                                         4.395399     -11.250428
                          1      13    4fx2z             0.050000       0.000000
                                                         0.148931       0.003699
                                                         0.454433       0.149247
                                                         1.335408       5.381333
                                                         4.395399     -11.250428
                          1      13    4fxy2             0.050000       0.000000
                                                         0.148931       0.003699
                                                         0.454433       0.149247
                                                         1.335408       5.381333
                                                         4.395399     -11.250428
                          1      13    4fxyz             0.050000       0.000000
                                                         0.148931       0.006406
                                                         0.454433       0.258503
                                                         1.335408       9.320743
                                                         4.395399     -19.486313
                          1      13    4fxz2             0.050000       0.000000
                                                         0.148931       0.003699
                                                         0.454433       0.149247
                                                         1.335408       5.381333
                                                         4.395399     -11.250428
                          1      13    4fy3              0.050000       0.000000
                                                         0.148931       0.001654
                                                         0.454433       0.066745
                                                         1.335408       2.406605
                                                         4.395399      -5.031344
                          1      13    4fy2z             0.050000       0.000000
                                                         0.148931       0.003699
                                                         0.454433       0.149247
                                                         1.335408       5.381333
                                                         4.395399     -11.250428
                          1      13    4fyz2             0.050000       0.000000
                                                         0.148931       0.003699
                                                         0.454433       0.149247
                                                         1.335408       5.381333
                                                         4.395399     -11.250428
                          1      13    4fz3              0.050000       0.000000
                                                         0.148931       0.001654
                                                         0.454433       0.066745
                                                         1.335408       2.406605
                                                         4.395399      -5.031344

                          1      14    5fx3              0.050000      -0.000035
                                                         0.148931       0.000216
                                                         0.454433       0.256015
                                                         1.335408      -0.160820
                                                         4.395399       0.000000
                          1      14    5fx2y             0.050000      -0.000077
                                                         0.148931       0.000483
                                                         0.454433       0.572467
                                                         1.335408      -0.359605
                                                         4.395399       0.000000
                          1      14    5fx2z             0.050000      -0.000077
                                                         0.148931       0.000483
                                                         0.454433       0.572467
                                                         1.335408      -0.359605
                                                         4.395399       0.000000
                          1      14    5fxy2             0.050000      -0.000077
                                                         0.148931       0.000483
                                                         0.454433       0.572467
                                                         1.335408      -0.359605
                                                         4.395399       0.000000
                          1      14    5fxyz             0.050000      -0.000134
                                                         0.148931       0.000837
                                                         0.454433       0.991542
                                                         1.335408      -0.622854
                                                         4.395399       0.000000
                          1      14    5fxz2             0.050000      -0.000077
                                                         0.148931       0.000483
                                                         0.454433       0.572467
                                                         1.335408      -0.359605
                                                         4.395399       0.000000
                          1      14    5fy3              0.050000      -0.000035
                                                         0.148931       0.000216
                                                         0.454433       0.256015
                                                         1.335408      -0.160820
                                                         4.395399       0.000000
                          1      14    5fy2z             0.050000      -0.000077
                                                         0.148931       0.000483
                                                         0.454433       0.572467
                                                         1.335408      -0.359605
                                                         4.395399       0.000000
                          1      14    5fyz2             0.050000      -0.000077
                                                         0.148931       0.000483
                                                         0.454433       0.572467
                                                         1.335408      -0.359605
                                                         4.395399       0.000000
                          1      14    5fz3              0.050000      -0.000035
                                                         0.148931       0.000216
                                                         0.454433       0.256015
                                                         1.335408      -0.160820
                                                         4.395399       0.000000

                          1      15    5gx4              0.050000       0.000008
                                                         0.148931       0.000769
                                                         0.454433       0.118509
                                                         1.335408       0.001274
                                                         4.395399       0.000000
                          1      15    5gx3y             0.050000       0.000022
                                                         0.148931       0.002034
                                                         0.454433       0.313545
                                                         1.335408       0.003370
                                                         4.395399       0.000000
                          1      15    5gx3z             0.050000       0.000022
                                                         0.148931       0.002034
                                                         0.454433       0.313545
                                                         1.335408       0.003370
                                                         4.395399       0.000000
                          1      15    5gx2y2            0.050000       0.000029
                                                         0.148931       0.002626
                                                         0.454433       0.404785
                                                         1.335408       0.004351
                                                         4.395399       0.000000
                          1      15    5gx2yz            0.050000       0.000050
                                                         0.148931       0.004548
                                                         0.454433       0.701109
                                                         1.335408       0.007536
                                                         4.395399       0.000000
                          1      15    5gx2z2            0.050000       0.000029
                                                         0.148931       0.002626
                                                         0.454433       0.404785
                                                         1.335408       0.004351
                                                         4.395399       0.000000
                          1      15    5gxy3             0.050000       0.000022
                                                         0.148931       0.002034
                                                         0.454433       0.313545
                                                         1.335408       0.003370
                                                         4.395399       0.000000
                          1      15    5gxy2z            0.050000       0.000050
                                                         0.148931       0.004548
                                                         0.454433       0.701109
                                                         1.335408       0.007536
                                                         4.395399       0.000000
                          1      15    5gxyz2            0.050000       0.000050
                                                         0.148931       0.004548
                                                         0.454433       0.701109
                                                         1.335408       0.007536
                                                         4.395399       0.000000
                          1      15    5gxz3             0.050000       0.000022
                                                         0.148931       0.002034
                                                         0.454433       0.313545
                                                         1.335408       0.003370
                                                         4.395399       0.000000
                          1      15    5gy4              0.050000       0.000008
                                                         0.148931       0.000769
                                                         0.454433       0.118509
                                                         1.335408       0.001274
                                                         4.395399       0.000000
                          1      15    5gy3z             0.050000       0.000022
                                                         0.148931       0.002034
                                                         0.454433       0.313545
                                                         1.335408       0.003370
                                                         4.395399       0.000000
                          1      15    5gy2z2            0.050000       0.000029
                                                         0.148931       0.002626
                                                         0.454433       0.404785
                                                         1.335408       0.004351
                                                         4.395399       0.000000
                          1      15    5gyz3             0.050000       0.000022
                                                         0.148931       0.002034
                                                         0.454433       0.313545
                                                         1.335408       0.003370
                                                         4.395399       0.000000
                          1      15    5gz4              0.050000       0.000008
                                                         0.148931       0.000769
                                                         0.454433       0.118509
                                                         1.335408       0.001274
                                                         4.395399       0.000000

                          2       1    1s         

     AE Potential information for                                            ALL

       Description:                                       All-electron potential
                                          Krack, Parrinello, PCCP 2, 2105 (2000)

       Gaussian exponent of the core charge distribution:               8.154466
       Electronic configuration (s p d ...):                           4   4   0

  2. Atomic kind: H                                     Number of atoms:       8

     Orbital Basis Set                                        aug-TZVP-MOLOPT-ae

       Number of orbital shell sets:                                           1
       Number of orbital shells:                                               9
       Number of primitive Cartesian functions:                                6
       Number of Cartesian basis functions:                                   25
       Number of spherical basis functions:                                   23
       Norm type:                                                              2

       Normalised Cartesian orbitals:

                        Set   Shell   Orbital            Exponent    Coefficient

                          1       1    1s                0.030000       0.000000
                                                         0.091371      -0.049397
                                                         0.293823      -0.051765
                                                         1.065127       0.831136
                                                         4.947701      -0.270539
                                                        34.177738      -6.423540

                          1       2    2s                0.030000       0.000000
                                                         0.091371      -0.041080
                                                         0.293823       0.227881
                                                         1.065127       0.154529
                                                         4.947701       0.528758
                                                        34.177738       3.211471

                          1       3    3s                0.030000       0.000000
                                                         0.091371       0.076395
                                                         0.293823       0.077306
                                                         1.065127       0.164523
                                                         4.947701      -0.040048
                                                        34.177738      -1.131577

                          1       4    4s                0.030000       0.043550
                                                         0.091371      -0.026138
                                                         0.293823      -0.246542
                                                         1.065127      -0.077212
                                                         4.947701       0.000000
                                                        34.177738       0.000000

                          1       5    2px               0.030000       0.000000
                                                         0.091371       0.008886
                                                         0.293823      -0.007684
                                                         1.065127       1.416453
                                                         4.947701       1.341091
                                                        34.177738     -11.084238
                          1       5    2py               0.030000       0.000000
                                                         0.091371       0.008886
                                                         0.293823      -0.007684
                                                         1.065127       1.416453
                                                         4.947701       1.341091
                                                        34.177738     -11.084238
                          1       5    2pz               0.030000       0.000000
                                                         0.091371       0.008886
                                                         0.293823      -0.007684
                                                         1.065127       1.416453
                                                         4.947701       1.341091
                                                        34.177738     -11.084238

                          1       6    3px               0.030000       0.000000
                                                         0.091371      -0.013062
                                                         0.293823       0.330130
                                                         1.065127       0.106963
                                                         4.947701      -0.549928
                                                        34.177738       9.643751
                          1       6    3py               0.030000       0.000000
                                                         0.091371      -0.013062
                                                         0.293823       0.330130
                                                         1.065127       0.106963
                                                         4.947701      -0.549928
                                                        34.177738       9.643751
                          1       6    3pz               0.030000       0.000000
                                                         0.091371      -0.013062
                                                         0.293823       0.330130
                                                         1.065127       0.106963
                                                         4.947701      -0.549928
                                                        34.177738       9.643751

                          1       7    4px               0.030000       0.014060
                                                         0.091371       0.022273
                                                         0.293823      -0.026384
                                                         1.065127       0.024249
                                                         4.947701       0.000000
                                                        34.177738       0.000000
                          1       7    4py               0.030000       0.014060
                                                         0.091371       0.022273
                                                         0.293823      -0.026384
                                                         1.065127       0.024249
                                                         4.947701       0.000000
                                                        34.177738       0.000000
                          1       7    4pz               0.030000       0.014060
                                                         0.091371       0.022273
                                                         0.293823      -0.026384
                                                         1.065127       0.024249
                                                         4.947701       0.000000
                                                        34.177738       0.000000

                          1       8    3dx2              0.030000       0.000000
                                                         0.091371      -0.004737
                                                         0.293823       0.052231
                                                         1.065127       1.617163
                                                         4.947701      -1.124420
                                                        34.177738       9.702470
                          1       8    3dxy              0.030000       0.000000
                                                         0.091371      -0.008204
                                                         0.293823       0.090468
                                                         1.065127       2.801009
                                                         4.947701      -1.947552
                                                        34.177738      16.805171
                          1       8    3dxz              0.030000       0.000000
                                                         0.091371      -0.008204
                                                         0.293823       0.090468
                                                         1.065127       2.801009
                                                         4.947701      -1.947552
                                                        34.177738      16.805171
                          1       8    3dy2              0.030000       0.000000
                                                         0.091371      -0.004737
                                                         0.293823       0.052231
                                                         1.065127       1.617163
                                                         4.947701      -1.124420
                                                        34.177738       9.702470
                          1       8    3dyz              0.030000       0.000000
                                                         0.091371      -0.008204
                                                         0.293823       0.090468
                                                         1.065127       2.801009
                                                         4.947701      -1.947552
                                                        34.177738      16.805171
                          1       8    3dz2              0.030000       0.000000
                                                         0.091371      -0.004737
                                                         0.293823       0.052231
                                                         1.065127       1.617163
                                                         4.947701      -1.124420
                                                        34.177738       9.702470

                          1       9    4dx2              0.030000       0.002444
                                                         0.091371       0.004703
                                                         0.293823       0.069647
                                                         1.065127       0.196246
                                                         4.947701       0.000000
                                                        34.177738       0.000000
                          1       9    4dxy              0.030000       0.004233
                                                         0.091371       0.008146
                                                         0.293823       0.120632
                                                         1.065127       0.339908
                                                         4.947701       0.000000
                                                        34.177738       0.000000
                          1       9    4dxz              0.030000       0.004233
                                                         0.091371       0.008146
                                                         0.293823       0.120632
                                                         1.065127       0.339908
                                                         4.947701       0.000000
                                                        34.177738       0.000000
                          1       9    4dy2              0.030000       0.002444
                                                         0.091371       0.004703
                                                         0.293823       0.069647
                                                         1.065127       0.196246
                                                         4.947701       0.000000
                                                        34.177738       0.000000
                          1       9    4dyz              0.030000       0.004233
                                                         0.091371       0.008146
                                                         0.293823       0.120632
                                                         1.065127       0.339908
                                                         4.947701       0.000000
                                                        34.177738       0.000000
                          1       9    4dz2              0.030000       0.002444
                                                         0.091371       0.004703
                                                         0.293823       0.069647
                                                         1.065127       0.196246
                                                         4.947701       0.000000
                                                        34.177738       0.000000

     RI Auxiliary Basis Set             RI_aug-TZVP-MOLOPT-ae_N_RI_031_s_p_d_f_g

       Number of orbital shell sets:                                          13
       Number of orbital shells:                                              13
       Number of primitive Cartesian functions:                               13
       Number of Cartesian basis functions:                                   33
       Number of spherical basis functions:                                   31
       Norm type:                                                              2

       Normalised Cartesian orbitals:

                        Set   Shell   Orbital            Exponent    Coefficient

                          1       1    1s                0.224932       0.232781

                          2       1    7px               0.279478       0.289650
                          2       1    7py               0.279478       0.289650
                          2       1    7pz               0.279478       0.289650

                          3       1   12dx2              0.469344       0.438046
                          3       1   12dxy              0.469344       0.758718
                          3       1   12dxz              0.469344       0.758718
                          3       1   12dy2              0.469344       0.438046
                          3       1   12dyz              0.469344       0.758718
                          3       1   12dz2              0.469344       0.438046

                          4       1    2s                0.497908       0.422447

                          5       1    8px               0.531011       0.646130
                          5       1    8py               0.531011       0.646130
                          5       1    8pz               0.531011       0.646130

                          6       1    3s                0.987287       0.705899

                          7       1   13dx2              1.473035       3.241772
                          7       1   13dxy              1.473035       5.614913
                          7       1   13dxz              1.473035       5.614913
                          7       1   13dy2              1.473035       3.241772
                          7       1   13dyz              1.473035       5.614913
                          7       1   13dz2              1.473035       3.241772

                          8       1    9px               1.518539       2.402827
                          8       1    9py               1.518539       2.402827
                          8       1    9pz               1.518539       2.402827

                          9       1    4s                1.784647       1.100460

                         10       1    5s                5.118749       2.425398

                         11       1   10px               6.826343      15.728062
                         11       1   10py               6.826343      15.728062
                         11       1   10pz               6.826343      15.728062

                         12       1   11px              18.266250      53.827205
                         12       1   11py              18.266250      53.827205
                         12       1   11pz              18.266250      53.827205

                         13       1    6s               26.803960       8.395746

       Atomic covalent radius [Angstrom]:                                  0.320

       Atomic van der Waals radius [Angstrom]:                             1.090

     The atoms of this atomic kind are PAW atoms (GAPW):
       Hard Gaussian function radius:                                      1.200
       Rho0 radius:                                                        1.200
       Maximum GTO radius used for PAW projector construction:            24.566

     GAPW Soft Basis Set                                 aug-TZVP-MOLOPT-ae_soft

       Number of orbital shell sets:                                           1
       Number of orbital shells:                                               9
       Number of primitive Cartesian functions:                                5
       Number of Cartesian basis functions:                                   25
       Number of spherical basis functions:                                   23
       Norm type:                                                              2

       Normalised Cartesian orbitals:

                        Set   Shell   Orbital            Exponent    Coefficient

                          1       1    1s                0.030000       0.000000
                                                         0.091371      -0.049397
                                                         0.293823      -0.051765
                                                         1.065127       0.831136
                                                         4.947701      -0.270539

                          1       2    2s                0.030000       0.000000
                                                         0.091371      -0.041080
                                                         0.293823       0.227881
                                                         1.065127       0.154529
                                                         4.947701       0.528758

                          1       3    3s                0.030000       0.000000
                                                         0.091371       0.076395
                                                         0.293823       0.077306
                                                         1.065127       0.164523
                                                         4.947701      -0.040048

                          1       4    4s                0.030000       0.043550
                                                         0.091371      -0.026138
                                                         0.293823      -0.246542
                                                         1.065127      -0.077212
                                                         4.947701       0.000000

                          1       5    2px               0.030000       0.000000
                                                         0.091371       0.008886
                                                         0.293823      -0.007684
                                                         1.065127       1.416453
                                                         4.947701       1.341091
                          1       5    2py               0.030000       0.000000
                                                         0.091371       0.008886
                                                         0.293823      -0.007684
                                                         1.065127       1.416453
                                                         4.947701       1.341091
                          1       5    2pz               0.030000       0.000000
                                                         0.091371       0.008886
                                                         0.293823      -0.007684
                                                         1.065127       1.416453
                                                         4.947701       1.341091

                          1       6    3px               0.030000       0.000000
                                                         0.091371      -0.013062
                                                         0.293823       0.330130
                                                         1.065127       0.106963
                                                         4.947701      -0.549928
                          1       6    3py               0.030000       0.000000
                                                         0.091371      -0.013062
                                                         0.293823       0.330130
                                                         1.065127       0.106963
                                                         4.947701      -0.549928
                          1       6    3pz               0.030000       0.000000
                                                         0.091371      -0.013062
                                                         0.293823       0.330130
                                                         1.065127       0.106963
                                                         4.947701      -0.549928

                          1       7    4px               0.030000       0.014060
                                                         0.091371       0.022273
                                                         0.293823      -0.026384
                                                         1.065127       0.024249
                                                         4.947701       0.000000
                          1       7    4py               0.030000       0.014060
                                                         0.091371       0.022273
                                                         0.293823      -0.026384
                                                         1.065127       0.024249
                                                         4.947701       0.000000
                          1       7    4pz               0.030000       0.014060
                                                         0.091371       0.022273
                                                         0.293823      -0.026384
                                                         1.065127       0.024249
                                                         4.947701       0.000000

                          1       8    3dx2              0.030000       0.000000
                                                         0.091371      -0.004737
                                                         0.293823       0.052231
                                                         1.065127       1.617163
                                                         4.947701      -1.124420
                          1       8    3dxy              0.030000       0.000000
                                                         0.091371      -0.008204
                                                         0.293823       0.090468
                                                         1.065127       2.801009
                                                         4.947701      -1.947552
                          1       8    3dxz              0.030000       0.000000
                                                         0.091371      -0.008204
                                                         0.293823       0.090468
                                                         1.065127       2.801009
                                                         4.947701      -1.947552
                          1       8    3dy2              0.030000       0.000000
                                                         0.091371      -0.004737
                                                         0.293823       0.052231
                                                         1.065127       1.617163
                                                         4.947701      -1.124420
                          1       8    3dyz              0.030000       0.000000
                                                         0.091371      -0.008204
                                                         0.293823       0.090468
                                                         1.065127       2.801009
                                                         4.947701      -1.947552
                          1       8    3dz2              0.030000       0.000000
                                                         0.091371      -0.004737
                                                         0.293823       0.052231
                                                         1.065127       1.617163
                                                         4.947701      -1.124420

                          1       9    4dx2              0.030000       0.002444
                                                         0.091371       0.004703
                                                         0.293823       0.069647
                                                         1.065127       0.196246
                                                         4.947701       0.000000
                          1       9    4dxy              0.030000       0.004233
                                                         0.091371       0.008146
                                                         0.293823       0.120632
                                                         1.065127       0.339908
                                                         4.947701       0.000000
                          1       9    4dxz              0.030000       0.004233
                                                         0.091371       0.008146
                                                         0.293823       0.120632
                                                         1.065127       0.339908
                                                         4.947701       0.000000
                          1       9    4dy2              0.030000       0.002444
                                                         0.091371       0.004703
                                                         0.293823       0.069647
                                                         1.065127       0.196246
                                                         4.947701       0.000000
                          1       9    4dyz              0.030000       0.004233
                                                         0.091371       0.008146
                                                         0.293823       0.120632
                                                         1.065127       0.339908
                                                         4.947701       0.000000
                          1       9    4dz2              0.030000       0.002444
                                                         0.091371       0.004703
                                                         0.293823       0.069647
                                                         1.065127       0.196246
                                                         4.947701       0.000000

     AE Potential information for                                            ALL

       Description:                                       All-electron potential
                                          Krack, Parrinello, PCCP 2, 2105 (2000)

       Gaussian exponent of the core charge distribution:              12.500000
       Electronic configuration (s p d ...):                           1   0   0

  3. Atomic kind: N                                     Number of atoms:       2

     Orbital Basis Set                                        aug-TZVP-MOLOPT-ae

       Number of orbital shell sets:                                           2
       Number of orbital shells:                                              16
       Number of primitive Cartesian functions:                               13
       Number of Cartesian basis functions:                                   71
       Number of spherical basis functions:                                   56
       Norm type:                                                              2

       Normalised Cartesian orbitals:

                        Set   Shell   Orbital            Exponent    Coefficient

                          1       1    1s                0.045000       0.000000
                                                         0.113512       0.014500
                                                         0.322032       0.036074
                                                         0.930550      -0.061635
                                                         2.987378       0.535699
                                                         8.608625       2.378505
                                                        49.270190       0.802518

                          1       2    2s                0.045000       0.000000
                                                         0.113512       0.032692
                                                         0.322032       0.082974
                                                         0.930550       0.396674
                                                         2.987378       0.054918
                                                         8.608625      -0.061481
                                                        49.270190      -0.622920

                          1       3    3s                0.045000       0.000000
                                                         0.113512       0.047996
                                                         0.322032       0.306069
                                                         0.930550      -0.408076
                                                         2.987378      -0.229943
                                                         8.608625      -0.870010
                                                        49.270190      -0.366977

                          1       4    4s                0.045000       0.000000
                                                         0.113512       0.171213
                                                         0.322032      -0.186943
                                                         0.930550      -0.188982
                                                         2.987378       0.637930
                                                         8.608625      -0.961511
                                                        49.270190      -7.166333

                          1       5    5s                0.045000       0.096440
                                                         0.113512      -0.064027
                                                         0.322032      -0.041902
                                                         0.930550       0.111692
                                                         2.987378       0.000000
                                                         8.608625       0.000000
                                                        49.270190       0.000000

                          1       6    2px               0.045000       0.000000
                                                         0.113512       0.006367
                                                         0.322032       0.040684
                                                         0.930550       0.811118
                                                         2.987378       1.750760
                                                         8.608625       1.288759
                                                        49.270190      12.161855
                          1       6    2py               0.045000       0.000000
                                                         0.113512       0.006367
                                                         0.322032       0.040684
                                                         0.930550       0.811118
                                                         2.987378       1.750760
                                                         8.608625       1.288759
                                                        49.270190      12.161855
                          1       6    2pz               0.045000       0.000000
                                                         0.113512       0.006367
                                                         0.322032       0.040684
                                                         0.930550       0.811118
                                                         2.987378       1.750760
                                                         8.608625       1.288759
                                                        49.270190      12.161855

                          1       7    3px               0.045000       0.000000
                                                         0.113512       0.011134
                                                         0.322032       0.344073
                                                         0.930550      -0.153789
                                                         2.987378      -0.764833
                                                         8.608625       0.375399
                                                        49.270190     -28.403920
                          1       7    3py               0.045000       0.000000
                                                         0.113512       0.011134
                                                         0.322032       0.344073
                                                         0.930550      -0.153789
                                                         2.987378      -0.764833
                                                         8.608625       0.375399
                                                        49.270190     -28.403920
                          1       7    3pz               0.045000       0.000000
                                                         0.113512       0.011134
                                                         0.322032       0.344073
                                                         0.930550      -0.153789
                                                         2.987378      -0.764833
                                                         8.608625       0.375399
                                                        49.270190     -28.403920

                          1       8    4px               0.045000       0.000000
                                                         0.113512       0.104427
                                                         0.322032      -0.047567
                                                         0.930550      -0.121777
                                                         2.987378      -0.049280
                                                         8.608625      -0.402261
                                                        49.270190       8.328837
                          1       8    4py               0.045000       0.000000
                                                         0.113512       0.104427
                                                         0.322032      -0.047567
                                                         0.930550      -0.121777
                                                         2.987378      -0.049280
                                                         8.608625      -0.402261
                                                        49.270190       8.328837
                          1       8    4pz               0.045000       0.000000
                                                         0.113512       0.104427
                                                         0.322032      -0.047567
                                                         0.930550      -0.121777
                                                         2.987378      -0.049280
                                                         8.608625      -0.402261
                                                        49.270190       8.328837

                          1       9    5px               0.045000       0.002493
                                                         0.113512      -0.112828
                                                         0.322032       0.052724
                                                         0.930550       0.295283
                                                         2.987378       0.000000
                                                         8.608625       0.000000
                                                        49.270190       0.000000
                          1       9    5py               0.045000       0.002493
                                                         0.113512      -0.112828
                                                         0.322032       0.052724
                                                         0.930550       0.295283
                                                         2.987378       0.000000
                                                         8.608625       0.000000
                                                        49.270190       0.000000
                          1       9    5pz               0.045000       0.002493
                                                         0.113512      -0.112828
                                                         0.322032       0.052724
                                                         0.930550       0.295283
                                                         2.987378       0.000000
                                                         8.608625       0.000000
                                                        49.270190       0.000000

                          1      10    3dx2              0.045000       0.000000
                                                         0.113512       0.008426
                                                         0.322032       0.004138
                                                         0.930550       0.975526
                                                         2.987378       4.861216
                                                         8.608625     -15.504622
                                                        49.270190     -47.156995
                          1      10    3dxy              0.045000       0.000000
                                                         0.113512       0.014594
                                                         0.322032       0.007167
                                                         0.930550       1.689661
                                                         2.987378       8.419873
                                                         8.608625     -26.854794
                                                        49.270190     -81.678311
                          1      10    3dxz              0.045000       0.000000
                                                         0.113512       0.014594
                                                         0.322032       0.007167
                                                         0.930550       1.689661
                                                         2.987378       8.419873
                                                         8.608625     -26.854794
                                                        49.270190     -81.678311
                          1      10    3dy2              0.045000       0.000000
                                                         0.113512       0.008426
                                                         0.322032       0.004138
                                                         0.930550       0.975526
                                                         2.987378       4.861216
                                                         8.608625     -15.504622
                                                        49.270190     -47.156995
                          1      10    3dyz              0.045000       0.000000
                                                         0.113512       0.014594
                                                         0.322032       0.007167
                                                         0.930550       1.689661
                                                         2.987378       8.419873
                                                         8.608625     -26.854794
                                                        49.270190     -81.678311
                          1      10    3dz2              0.045000       0.000000
                                                         0.113512       0.008426
                                                         0.322032       0.004138
                                                         0.930550       0.975526
                                                         2.987378       4.861216
                                                         8.608625     -15.504622
                                                        49.270190     -47.156995

                          1      11    4dx2              0.045000       0.000000
                                                         0.113512      -0.007657
                                                         0.322032       0.207542
                                                         0.930550       0.469670
                                                         2.987378      -3.348764
                                                         8.608625      17.703387
                                                        49.270190      69.517765
                          1      11    4dxy              0.045000       0.000000
                                                         0.113512      -0.013263
                                                         0.322032       0.359472
                                                         0.930550       0.813493
                                                         2.987378      -5.800229
                                                         8.608625      30.663165
                                                        49.270190     120.408301
                          1      11    4dxz              0.045000       0.000000
                                                         0.113512      -0.013263
                                                         0.322032       0.359472
                                                         0.930550       0.813493
                                                         2.987378      -5.800229
                                                         8.608625      30.663165
                                                        49.270190     120.408301
                          1      11    4dy2              0.045000       0.000000
                                                         0.113512      -0.007657
                                                         0.322032       0.207542
                                                         0.930550       0.469670
                                                         2.987378      -3.348764
                                                         8.608625      17.703387
                                                        49.270190      69.517765
                          1      11    4dyz              0.045000       0.000000
                                                         0.113512      -0.013263
                                                         0.322032       0.359472
                                                         0.930550       0.813493
                                                         2.987378      -5.800229
                                                         8.608625      30.663165
                                                        49.270190     120.408301
                          1      11    4dz2              0.045000       0.000000
                                                         0.113512      -0.007657
                                                         0.322032       0.207542
                                                         0.930550       0.469670
                                                         2.987378      -3.348764
                                                         8.608625      17.703387
                                                        49.270190      69.517765

                          1      12    5dx2              0.045000      -0.000996
                                                         0.113512       0.002353
                                                         0.322032       0.164897
                                                         0.930550       0.509235
                                                         2.987378       0.000000
                                                         8.608625       0.000000
                                                        49.270190       0.000000
                          1      12    5dxy              0.045000      -0.001726
                                                         0.113512       0.004075
                                                         0.322032       0.285610
                                                         0.930550       0.882020
                                                         2.987378       0.000000
                                                         8.608625       0.000000
                                                        49.270190       0.000000
                          1      12    5dxz              0.045000      -0.001726
                                                         0.113512       0.004075
                                                         0.322032       0.285610
                                                         0.930550       0.882020
                                                         2.987378       0.000000
                                                         8.608625       0.000000
                                                        49.270190       0.000000
                          1      12    5dy2              0.045000      -0.000996
                                                         0.113512       0.002353
                                                         0.322032       0.164897
                                                         0.930550       0.509235
                                                         2.987378       0.000000
                                                         8.608625       0.000000
                                                        49.270190       0.000000
                          1      12    5dyz              0.045000      -0.001726
                                                         0.113512       0.004075
                                                         0.322032       0.285610
                                                         0.930550       0.882020
                                                         2.987378       0.000000
                                                         8.608625       0.000000
                                                        49.270190       0.000000
                          1      12    5dz2              0.045000      -0.000996
                                                         0.113512       0.002353
                                                         0.322032       0.164897
                                                         0.930550       0.509235
                                                         2.987378       0.000000
                                                         8.608625       0.000000
                                                        49.270190       0.000000

                          1      13    4fx3              0.045000       0.000000
                                                         0.113512       0.000350
                                                         0.322032       0.026408
                                                         0.930550       1.022795
                                                         2.987378       1.277764
                                                         8.608625      -7.108652
                                                        49.270190     240.939937
                          1      13    4fx2y             0.045000       0.000000
                                                         0.113512       0.000782
                                                         0.322032       0.059050
                                                         0.930550       2.287038
                                                         2.987378       2.857166
                                                         8.608625     -15.895429
                                                        49.270190     538.758077
                          1      13    4fx2z             0.045000       0.000000
                                                         0.113512       0.000782
                                                         0.322032       0.059050
                                                         0.930550       2.287038
                                                         2.987378       2.857166
                                                         8.608625     -15.895429
                                                        49.270190     538.758077
                          1      13    4fxy2             0.045000       0.000000
                                                         0.113512       0.000782
                                                         0.322032       0.059050
                                                         0.930550       2.287038
                                                         2.987378       2.857166
                                                         8.608625     -15.895429
                                                        49.270190     538.758077
                          1      13    4fxyz             0.045000       0.000000
                                                         0.113512       0.001354
                                                         0.322032       0.102278
                                                         0.930550       3.961267
                                                         2.987378       4.948757
                                                         8.608625     -27.531691
                                                        49.270190     933.156362
                          1      13    4fxz2             0.045000       0.000000
                                                         0.113512       0.000782
                                                         0.322032       0.059050
                                                         0.930550       2.287038
                                                         2.987378       2.857166
                                                         8.608625     -15.895429
                                                        49.270190     538.758077
                          1      13    4fy3              0.045000       0.000000
                                                         0.113512       0.000350
                                                         0.322032       0.026408
                                                         0.930550       1.022795
                                                         2.987378       1.277764
                                                         8.608625      -7.108652
                                                        49.270190     240.939937
                          1      13    4fy2z             0.045000       0.000000
                                                         0.113512       0.000782
                                                         0.322032       0.059050
                                                         0.930550       2.287038
                                                         2.987378       2.857166
                                                         8.608625     -15.895429
                                                        49.270190     538.758077
                          1      13    4fyz2             0.045000       0.000000
                                                         0.113512       0.000782
                                                         0.322032       0.059050
                                                         0.930550       2.287038
                                                         2.987378       2.857166
                                                         8.608625     -15.895429
                                                        49.270190     538.758077
                          1      13    4fz3              0.045000       0.000000
                                                         0.113512       0.000350
                                                         0.322032       0.026408
                                                         0.930550       1.022795
                                                         2.987378       1.277764
                                                         8.608625      -7.108652
                                                        49.270190     240.939937

                          1      14    5fx3              0.045000       0.000031
                                                         0.113512       0.000543
                                                         0.322032       0.086041
                                                         0.930550       0.419256
                                                         2.987378       0.000000
                                                         8.608625       0.000000
                                                        49.270190       0.000000
                          1      14    5fx2y             0.045000       0.000070
                                                         0.113512       0.001214
                                                         0.322032       0.192393
                                                         0.930550       0.937485
                                                         2.987378       0.000000
                                                         8.608625       0.000000
                                                        49.270190       0.000000
                          1      14    5fx2z             0.045000       0.000070
                                                         0.113512       0.001214
                                                         0.322032       0.192393
                                                         0.930550       0.937485
                                                         2.987378       0.000000
                                                         8.608625       0.000000
                                                        49.270190       0.000000
                          1      14    5fxy2             0.045000       0.000070
                                                         0.113512       0.001214
                                                         0.322032       0.192393
                                                         0.930550       0.937485
                                                         2.987378       0.000000
                                                         8.608625       0.000000
                                                        49.270190       0.000000
                          1      14    5fxyz             0.045000       0.000121
                                                         0.113512       0.002103
                                                         0.322032       0.333234
                                                         0.930550       1.623771
                                                         2.987378       0.000000
                                                         8.608625       0.000000
                                                        49.270190       0.000000
                          1      14    5fxz2             0.045000       0.000070
                                                         0.113512       0.001214
                                                         0.322032       0.192393
                                                         0.930550       0.937485
                                                         2.987378       0.000000
                                                         8.608625       0.000000
                                                        49.270190       0.000000
                          1      14    5fy3              0.045000       0.000031
                                                         0.113512       0.000543
                                                         0.322032       0.086041
                                                         0.930550       0.419256
                                                         2.987378       0.000000
                                                         8.608625       0.000000
                                                        49.270190       0.000000
                          1      14    5fy2z             0.045000       0.000070
                                                         0.113512       0.001214
                                                         0.322032       0.192393
                                                         0.930550       0.937485
                                                         2.987378       0.000000
                                                         8.608625       0.000000
                                                        49.270190       0.000000
                          1      14    5fyz2             0.045000       0.000070
                                                         0.113512       0.001214
                                                         0.322032       0.192393
                                                         0.930550       0.937485
                                                         2.987378       0.000000
                                                         8.608625       0.000000
                                                        49.270190       0.000000
                          1      14    5fz3              0.045000       0.000031
                                                         0.113512       0.000543
                                                         0.322032       0.086041
                                                         0.930550       0.419256
                                                         2.987378       0.000000
                                                         8.608625       0.000000
                                                        49.270190       0.000000

                          1      15    5gx4              0.045000       0.000051
                                                         0.113512       0.002105
                                                         0.322032       0.008605
                                                         0.930550       0.058205
                                                         2.987378       0.000000
                                                         8.608625       0.000000
                                                        49.270190       0.000000
                          1      15    5gx3y             0.045000       0.000134
                                                         0.113512       0.005569
                                                         0.322032       0.022768
                                                         0.930550       0.153995
                                                         2.987378       0.000000
                                                         8.608625       0.000000
                                                        49.270190       0.000000
                          1      15    5gx3z             0.045000       0.000134
                                                         0.113512       0.005569
                                                         0.322032       0.022768
                                                         0.930550       0.153995
                                                         2.987378       0.000000
                                                         8.608625       0.000000
                                                        49.270190       0.000000
                          1      15    5gx2y2            0.045000       0.000173
                                                         0.113512       0.007189
                                                         0.322032       0.029393
                                                         0.930550       0.198807
                                                         2.987378       0.000000
                                                         8.608625       0.000000
                                                        49.270190       0.000000
                          1      15    5gx2yz            0.045000       0.000300
                                                         0.113512       0.012452
                                                         0.322032       0.050910
                                                         0.930550       0.344344
                                                         2.987378       0.000000
                                                         8.608625       0.000000
                                                        49.270190       0.000000
                          1      15    5gx2z2            0.045000       0.000173
                                                         0.113512       0.007189
                                                         0.322032       0.029393
                                                         0.930550       0.198807
                                                         2.987378       0.000000
                                                         8.608625       0.000000
                                                        49.270190       0.000000
                          1      15    5gxy3             0.045000       0.000134
                                                         0.113512       0.005569
                                                         0.322032       0.022768
                                                         0.930550       0.153995
                                                         2.987378       0.000000
                                                         8.608625       0.000000
                                                        49.270190       0.000000
                          1      15    5gxy2z            0.045000       0.000300
                                                         0.113512       0.012452
                                                         0.322032       0.050910
                                                         0.930550       0.344344
                                                         2.987378       0.000000
                                                         8.608625       0.000000
                                                        49.270190       0.000000
                          1      15    5gxyz2            0.045000       0.000300
                                                         0.113512       0.012452
                                                         0.322032       0.050910
                                                         0.930550       0.344344
                                                         2.987378       0.000000
                                                         8.608625       0.000000
                                                        49.270190       0.000000
                          1      15    5gxz3             0.045000       0.000134
                                                         0.113512       0.005569
                                                         0.322032       0.022768
                                                         0.930550       0.153995
                                                         2.987378       0.000000
                                                         8.608625       0.000000
                                                        49.270190       0.000000
                          1      15    5gy4              0.045000       0.000051
                                                         0.113512       0.002105
                                                         0.322032       0.008605
                                                         0.930550       0.058205
                                                         2.987378       0.000000
                                                         8.608625       0.000000
                                                        49.270190       0.000000
                          1      15    5gy3z             0.045000       0.000134
                                                         0.113512       0.005569
                                                         0.322032       0.022768
                                                         0.930550       0.153995
                                                         2.987378       0.000000
                                                         8.608625       0.000000
                                                        49.270190       0.000000
                          1      15    5gy2z2            0.045000       0.000173
                                                         0.113512       0.007189
                                                         0.322032       0.029393
                                                         0.930550       0.198807
                                                         2.987378       0.000000
                                                         8.608625       0.000000
                                                        49.270190       0.000000
                          1      15    5gyz3             0.045000       0.000134
                                                         0.113512       0.005569
                                                         0.322032       0.022768
                                                         0.930550       0.153995
                                                         2.987378       0.000000
                                                         8.608625       0.000000
                                                        49.270190       0.000000
                          1      15    5gz4              0.045000       0.000051
                                                         0.113512       0.002105
                                                         0.322032       0.008605
                                                         0.930550       0.058205
                                                         2.987378       0.000000
                                                         8.608625       0.000000
                                                        49.270190       0.000000

                          2       1    1s            19730.758242       0.654856
                                                      2958.006020       1.769548
                                                       673.387518       2.322723
                                                       190.675174       4.547417
                                                        62.366448       3.527190
                                                        22.833858       5.352733

     RI Auxiliary Basis Set             RI_aug-TZVP-MOLOPT-ae_N_RI_112_s_p_d_f_g

       Number of orbital shell sets:                                          26
       Number of orbital shells:                                              26
       Number of primitive Cartesian functions:                               26
       Number of Cartesian basis functions:                                  152
       Number of spherical basis functions:                                  112
       Norm type:                                                              2

       Normalised Cartesian orbitals:

                        Set   Shell   Orbital            Exponent    Coefficient

                          1       1    1s                0.260514       0.259887

                          2       1   14dx2              0.292377       0.191341
                          2       1   14dxy              0.292377       0.331413
                          2       1   14dxz              0.292377       0.331413
                          2       1   14dy2              0.292377       0.191341
                          2       1   14dyz              0.292377       0.331413
                          2       1   14dz2              0.292377       0.191341

                          3       1    8px               0.339061       0.368797
                          3       1    8py               0.339061       0.368797
                          3       1    8pz               0.339061       0.368797

                          4       1   24gx4              0.490960       0.157330
                          4       1   24gx3y             0.490960       0.416256
                          4       1   24gx3z             0.490960       0.416256
                          4       1   24gx2y2            0.490960       0.537384
                          4       1   24gx2yz            0.490960       0.930777
                          4       1   24gx2z2            0.490960       0.537384
                          4       1   24gxy3             0.490960       0.416256
                          4       1   24gxy2z            0.490960       0.930777
                          4       1   24gxyz2            0.490960       0.930777
                          4       1   24gxz3             0.490960       0.416256
                          4       1   24gy4              0.490960       0.157330
                          4       1   24gy3z             0.490960       0.416256
                          4       1   24gy2z2            0.490960       0.537384
                          4       1   24gyz3             0.490960       0.416256
                          4       1   24gz4              0.490960       0.157330

                          5       1   15dx2              0.512054       0.510166
                          5       1   15dxy              0.512054       0.883634
                          5       1   15dxz              0.512054       0.883634
                          5       1   15dy2              0.512054       0.510166
                          5       1   15dyz              0.512054       0.883634
                          5       1   15dz2              0.512054       0.510166

                          6       1   20fx3              0.544013       0.374175
                          6       1   20fx2y             0.544013       0.836680
                          6       1   20fx2z             0.544013       0.836680
                          6       1   20fxy2             0.544013       0.836680
                          6       1   20fxyz             0.544013       1.449173
                          6       1   20fxz2             0.544013       0.836680
                          6       1   20fy3              0.544013       0.374175
                          6       1   20fy2z             0.544013       0.836680
                          6       1   20fyz2             0.544013       0.836680
                          6       1   20fz3              0.544013       0.374175

                          7       1    9px               0.595640       0.745882
                          7       1    9py               0.595640       0.745882
                          7       1    9pz               0.595640       0.745882

                          8       1    2s                0.714912       0.554115

                          9       1   26hx5              0.718673       0.253554
                          9       1   26hx4y             0.718673       0.760662
                          9       1   26hx4z             0.718673       0.760662
                          9       1   26hx3y2            0.718673       1.161930
                          9       1   26hx3yz            0.718673       2.012521
                          9       1   26hx3z2            0.718673       1.161930
                          9       1   26hx2y3            0.718673       1.161930
                          9       1   26hx2y2z           0.718673       2.598154
                          9       1   26hx2yz2           0.718673       2.598154
                          9       1   26hx2z3            0.718673       1.161930
                          9       1   26hxy4             0.718673       0.760662
                          9       1   26hxy3z            0.718673       2.012521
                          9       1   26hxy2z2           0.718673       2.598154
                          9       1   26hxyz3            0.718673       2.012521
                          9       1   26hxz4             0.718673       0.760662
                          9       1   26hy5              0.718673       0.253554
                          9       1   26hy4z             0.718673       0.760662
                          9       1   26hy3z2            0.718673       1.161930
                          9       1   26hy2z3            0.718673       1.161930
                          9       1   26hyz4             0.718673       0.760662
                          9       1   26hz5              0.718673       0.253554

                         10       1   16dx2              0.937774       1.470893
                         10       1   16dxy              0.937774       2.547662
                         10       1   16dxz              0.937774       2.547662
                         10       1   16dy2              0.937774       1.470893
                         10       1   16dyz              0.937774       2.547662
                         10       1   16dz2              0.937774       1.470893

                         11       1   21fx3              1.254079       2.450110
                         11       1   21fx2y             1.254079       5.478613
                         11       1   21fx2z             1.254079       5.478613
                         11       1   21fxy2             1.254079       5.478613
                         11       1   21fxyz             1.254079       9.489235
                         11       1   21fxz2             1.254079       5.478613
                         11       1   21fy3              1.254079       2.450110
                         11       1   21fy2z             1.254079       5.478613
                         11       1   21fyz2             1.254079       5.478613
                         11       1   21fz3              1.254079       2.450110

                         12       1   10px               1.342283       2.059422
                         12       1   10py               1.342283       2.059422
                         12       1   10pz               1.342283       2.059422

                         13       1    3s                1.396123       0.915383

                         14       1   17dx2              1.720262       4.253046
                         14       1   17dxy              1.720262       7.366491
                         14       1   17dxz              1.720262       7.366491
                         14       1   17dy2              1.720262       4.253046
                         14       1   17dyz              1.720262       7.366491
                         14       1   17dz2              1.720262       4.253046

                         15       1   25gx4              1.908829       6.584835
                         15       1   25gx3y             1.908829      17.421835
                         15       1   25gx3z             1.908829      17.421835
                         15       1   25gx2y2            1.908829      22.491492
                         15       1   25gx2yz            1.908829      38.956407
                         15       1   25gx2z2            1.908829      22.491492
                         15       1   25gxy3             1.908829      17.421835
                         15       1   25gxy2z            1.908829      38.956407
                         15       1   25gxyz2            1.908829      38.956407
                         15       1   25gxz3             1.908829      17.421835
                         15       1   25gy4              1.908829       6.584835
                         15       1   25gy3z             1.908829      17.421835
                         15       1   25gy2z2            1.908829      22.491492
                         15       1   25gyz3             1.908829      17.421835
                         15       1   25gz4              1.908829       6.584835

                         16       1   22fx3              3.013227      17.610677
                         16       1   22fx2y             3.013227      39.378671
                         16       1   22fx2z             3.013227      39.378671
                         16       1   22fxy2             3.013227      39.378671
                         16       1   22fxyz             3.013227      68.205858
                         16       1   22fxz2             3.013227      39.378671
                         16       1   22fy3              3.013227      17.610677
                         16       1   22fy2z             3.013227      39.378671
                         16       1   22fyz2             3.013227      39.378671
                         16       1   22fz3              3.013227      17.610677

                         17       1   18dx2              3.205702      12.640813
                         17       1   18dxy              3.205702      21.894531
                         17       1   18dxz              3.205702      21.894531
                         17       1   18dy2              3.205702      12.640813
                         17       1   18dyz              3.205702      21.894531
                         17       1   18dz2              3.205702      12.640813

                         18       1    4s                3.967216       2.003431

                         19       1   11px               4.782880      10.082121
                         19       1   11py               4.782880      10.082121
                         19       1   11pz               4.782880      10.082121

                         20       1   19dx2              6.134517      39.357284
                         20       1   19dxy              6.134517      68.168816
                         20       1   19dxz              6.134517      68.168816
                         20       1   19dy2              6.134517      39.357284
                         20       1   19dyz              6.134517      68.168816
                         20       1   19dz2              6.134517      39.357284

                         21       1   23fx3              6.825940     110.871528
                         21       1   23fx2y             6.825940     247.916274
                         21       1   23fx2z             6.825940     247.916274
                         21       1   23fxy2             6.825940     247.916274
                         21       1   23fxyz             6.825940     429.403583
                         21       1   23fxz2             6.825940     247.916274
                         21       1   23fy3              6.825940     110.871528
                         21       1   23fy2z             6.825940     247.916274
                         21       1   23fyz2             6.825940     247.916274
                         21       1   23fz3              6.825940     110.871528

                         22       1   12px              11.792277      31.148503
                         22       1   12py              11.792277      31.148503
                         22       1   12pz              11.792277      31.148503

                         23       1    5s               12.869791       4.842713

                         24       1   13px              26.937063      87.473779
                         24       1   13py              26.937063      87.473779
                         24       1   13pz              26.937063      87.473779

                         25       1    6s               38.640700      11.045715

                         26       1    7s              105.447650      23.452426

       Atomic covalent radius [Angstrom]:                                  0.750

       Atomic van der Waals radius [Angstrom]:                             1.550

     The atoms of this atomic kind are PAW atoms (GAPW):
       Hard Gaussian function radius:                                      1.512
       Rho0 radius:                                                        1.512
       Maximum GTO radius used for PAW projector construction:            24.566

     GAPW Soft Basis Set                                 aug-TZVP-MOLOPT-ae_soft

       Number of orbital shell sets:                                           2
       Number of orbital shells:                                              16
       Number of primitive Cartesian functions:                                5
       Number of Cartesian basis functions:                                   71
       Number of spherical basis functions:                                   56
       Norm type:                                                              2

       Normalised Cartesian orbitals:

                        Set   Shell   Orbital            Exponent    Coefficient

                          1       1    1s                0.045000       0.000000
                                                         0.113512       0.014500
                                                         0.322032       0.036074
                                                         0.930550      -0.061635
                                                         2.987378       0.535699

                          1       2    2s                0.045000       0.000000
                                                         0.113512       0.032692
                                                         0.322032       0.082974
                                                         0.930550       0.396674
                                                         2.987378       0.054918

                          1       3    3s                0.045000       0.000000
                                                         0.113512       0.047996
                                                         0.322032       0.306069
                                                         0.930550      -0.408076
                                                         2.987378      -0.229943

                          1       4    4s                0.045000       0.000000
                                                         0.113512       0.171213
                                                         0.322032      -0.186943
                                                         0.930550      -0.188982
                                                         2.987378       0.637930

                          1       5    5s                0.045000       0.096440
                                                         0.113512      -0.064027
                                                         0.322032      -0.041902
                                                         0.930550       0.111692
                                                         2.987378       0.000000

                          1       6    2px               0.045000       0.000000
                                                         0.113512       0.006367
                                                         0.322032       0.040684
                                                         0.930550       0.811118
                                                         2.987378       1.750760
                          1       6    2py               0.045000       0.000000
                                                         0.113512       0.006367
                                                         0.322032       0.040684
                                                         0.930550       0.811118
                                                         2.987378       1.750760
                          1       6    2pz               0.045000       0.000000
                                                         0.113512       0.006367
                                                         0.322032       0.040684
                                                         0.930550       0.811118
                                                         2.987378       1.750760

                          1       7    3px               0.045000       0.000000
                                                         0.113512       0.011134
                                                         0.322032       0.344073
                                                         0.930550      -0.153789
                                                         2.987378      -0.764833
                          1       7    3py               0.045000       0.000000
                                                         0.113512       0.011134
                                                         0.322032       0.344073
                                                         0.930550      -0.153789
                                                         2.987378      -0.764833
                          1       7    3pz               0.045000       0.000000
                                                         0.113512       0.011134
                                                         0.322032       0.344073
                                                         0.930550      -0.153789
                                                         2.987378      -0.764833

                          1       8    4px               0.045000       0.000000
                                                         0.113512       0.104427
                                                         0.322032      -0.047567
                                                         0.930550      -0.121777
                                                         2.987378      -0.049280
                          1       8    4py               0.045000       0.000000
                                                         0.113512       0.104427
                                                         0.322032      -0.047567
                                                         0.930550      -0.121777
                                                         2.987378      -0.049280
                          1       8    4pz               0.045000       0.000000
                                                         0.113512       0.104427
                                                         0.322032      -0.047567
                                                         0.930550      -0.121777
                                                         2.987378      -0.049280

                          1       9    5px               0.045000       0.002493
                                                         0.113512      -0.112828
                                                         0.322032       0.052724
                                                         0.930550       0.295283
                                                         2.987378       0.000000
                          1       9    5py               0.045000       0.002493
                                                         0.113512      -0.112828
                                                         0.322032       0.052724
                                                         0.930550       0.295283
                                                         2.987378       0.000000
                          1       9    5pz               0.045000       0.002493
                                                         0.113512      -0.112828
                                                         0.322032       0.052724
                                                         0.930550       0.295283
                                                         2.987378       0.000000

                          1      10    3dx2              0.045000       0.000000
                                                         0.113512       0.008426
                                                         0.322032       0.004138
                                                         0.930550       0.975526
                                                         2.987378       4.861216
                          1      10    3dxy              0.045000       0.000000
                                                         0.113512       0.014594
                                                         0.322032       0.007167
                                                         0.930550       1.689661
                                                         2.987378       8.419873
                          1      10    3dxz              0.045000       0.000000
                                                         0.113512       0.014594
                                                         0.322032       0.007167
                                                         0.930550       1.689661
                                                         2.987378       8.419873
                          1      10    3dy2              0.045000       0.000000
                                                         0.113512       0.008426
                                                         0.322032       0.004138
                                                         0.930550       0.975526
                                                         2.987378       4.861216
                          1      10    3dyz              0.045000       0.000000
                                                         0.113512       0.014594
                                                         0.322032       0.007167
                                                         0.930550       1.689661
                                                         2.987378       8.419873
                          1      10    3dz2              0.045000       0.000000
                                                         0.113512       0.008426
                                                         0.322032       0.004138
                                                         0.930550       0.975526
                                                         2.987378       4.861216

                          1      11    4dx2              0.045000       0.000000
                                                         0.113512      -0.007657
                                                         0.322032       0.207542
                                                         0.930550       0.469670
                                                         2.987378      -3.348764
                          1      11    4dxy              0.045000       0.000000
                                                         0.113512      -0.013263
                                                         0.322032       0.359472
                                                         0.930550       0.813493
                                                         2.987378      -5.800229
                          1      11    4dxz              0.045000       0.000000
                                                         0.113512      -0.013263
                                                         0.322032       0.359472
                                                         0.930550       0.813493
                                                         2.987378      -5.800229
                          1      11    4dy2              0.045000       0.000000
                                                         0.113512      -0.007657
                                                         0.322032       0.207542
                                                         0.930550       0.469670
                                                         2.987378      -3.348764
                          1      11    4dyz              0.045000       0.000000
                                                         0.113512      -0.013263
                                                         0.322032       0.359472
                                                         0.930550       0.813493
                                                         2.987378      -5.800229
                          1      11    4dz2              0.045000       0.000000
                                                         0.113512      -0.007657
                                                         0.322032       0.207542
                                                         0.930550       0.469670
                                                         2.987378      -3.348764

                          1      12    5dx2              0.045000      -0.000996
                                                         0.113512       0.002353
                                                         0.322032       0.164897
                                                         0.930550       0.509235
                                                         2.987378       0.000000
                          1      12    5dxy              0.045000      -0.001726
                                                         0.113512       0.004075
                                                         0.322032       0.285610
                                                         0.930550       0.882020
                                                         2.987378       0.000000
                          1      12    5dxz              0.045000      -0.001726
                                                         0.113512       0.004075
                                                         0.322032       0.285610
                                                         0.930550       0.882020
                                                         2.987378       0.000000
                          1      12    5dy2              0.045000      -0.000996
                                                         0.113512       0.002353
                                                         0.322032       0.164897
                                                         0.930550       0.509235
                                                         2.987378       0.000000
                          1      12    5dyz              0.045000      -0.001726
                                                         0.113512       0.004075
                                                         0.322032       0.285610
                                                         0.930550       0.882020
                                                         2.987378       0.000000
                          1      12    5dz2              0.045000      -0.000996
                                                         0.113512       0.002353
                                                         0.322032       0.164897
                                                         0.930550       0.509235
                                                         2.987378       0.000000

                          1      13    4fx3              0.045000       0.000000
                                                         0.113512       0.000350
                                                         0.322032       0.026408
                                                         0.930550       1.022795
                                                         2.987378       1.277764
                          1      13    4fx2y             0.045000       0.000000
                                                         0.113512       0.000782
                                                         0.322032       0.059050
                                                         0.930550       2.287038
                                                         2.987378       2.857166
                          1      13    4fx2z             0.045000       0.000000
                                                         0.113512       0.000782
                                                         0.322032       0.059050
                                                         0.930550       2.287038
                                                         2.987378       2.857166
                          1      13    4fxy2             0.045000       0.000000
                                                         0.113512       0.000782
                                                         0.322032       0.059050
                                                         0.930550       2.287038
                                                         2.987378       2.857166
                          1      13    4fxyz             0.045000       0.000000
                                                         0.113512       0.001354
                                                         0.322032       0.102278
                                                         0.930550       3.961267
                                                         2.987378       4.948757
                          1      13    4fxz2             0.045000       0.000000
                                                         0.113512       0.000782
                                                         0.322032       0.059050
                                                         0.930550       2.287038
                                                         2.987378       2.857166
                          1      13    4fy3              0.045000       0.000000
                                                         0.113512       0.000350
                                                         0.322032       0.026408
                                                         0.930550       1.022795
                                                         2.987378       1.277764
                          1      13    4fy2z             0.045000       0.000000
                                                         0.113512       0.000782
                                                         0.322032       0.059050
                                                         0.930550       2.287038
                                                         2.987378       2.857166
                          1      13    4fyz2             0.045000       0.000000
                                                         0.113512       0.000782
                                                         0.322032       0.059050
                                                         0.930550       2.287038
                                                         2.987378       2.857166
                          1      13    4fz3              0.045000       0.000000
                                                         0.113512       0.000350
                                                         0.322032       0.026408
                                                         0.930550       1.022795
                                                         2.987378       1.277764

                          1      14    5fx3              0.045000       0.000031
                                                         0.113512       0.000543
                                                         0.322032       0.086041
                                                         0.930550       0.419256
                                                         2.987378       0.000000
                          1      14    5fx2y             0.045000       0.000070
                                                         0.113512       0.001214
                                                         0.322032       0.192393
                                                         0.930550       0.937485
                                                         2.987378       0.000000
                          1      14    5fx2z             0.045000       0.000070
                                                         0.113512       0.001214
                                                         0.322032       0.192393
                                                         0.930550       0.937485
                                                         2.987378       0.000000
                          1      14    5fxy2             0.045000       0.000070
                                                         0.113512       0.001214
                                                         0.322032       0.192393
                                                         0.930550       0.937485
                                                         2.987378       0.000000
                          1      14    5fxyz             0.045000       0.000121
                                                         0.113512       0.002103
                                                         0.322032       0.333234
                                                         0.930550       1.623771
                                                         2.987378       0.000000
                          1      14    5fxz2             0.045000       0.000070
                                                         0.113512       0.001214
                                                         0.322032       0.192393
                                                         0.930550       0.937485
                                                         2.987378       0.000000
                          1      14    5fy3              0.045000       0.000031
                                                         0.113512       0.000543
                                                         0.322032       0.086041
                                                         0.930550       0.419256
                                                         2.987378       0.000000
                          1      14    5fy2z             0.045000       0.000070
                                                         0.113512       0.001214
                                                         0.322032       0.192393
                                                         0.930550       0.937485
                                                         2.987378       0.000000
                          1      14    5fyz2             0.045000       0.000070
                                                         0.113512       0.001214
                                                         0.322032       0.192393
                                                         0.930550       0.937485
                                                         2.987378       0.000000
                          1      14    5fz3              0.045000       0.000031
                                                         0.113512       0.000543
                                                         0.322032       0.086041
                                                         0.930550       0.419256
                                                         2.987378       0.000000

                          1      15    5gx4              0.045000       0.000051
                                                         0.113512       0.002105
                                                         0.322032       0.008605
                                                         0.930550       0.058205
                                                         2.987378       0.000000
                          1      15    5gx3y             0.045000       0.000134
                                                         0.113512       0.005569
                                                         0.322032       0.022768
                                                         0.930550       0.153995
                                                         2.987378       0.000000
                          1      15    5gx3z             0.045000       0.000134
                                                         0.113512       0.005569
                                                         0.322032       0.022768
                                                         0.930550       0.153995
                                                         2.987378       0.000000
                          1      15    5gx2y2            0.045000       0.000173
                                                         0.113512       0.007189
                                                         0.322032       0.029393
                                                         0.930550       0.198807
                                                         2.987378       0.000000
                          1      15    5gx2yz            0.045000       0.000300
                                                         0.113512       0.012452
                                                         0.322032       0.050910
                                                         0.930550       0.344344
                                                         2.987378       0.000000
                          1      15    5gx2z2            0.045000       0.000173
                                                         0.113512       0.007189
                                                         0.322032       0.029393
                                                         0.930550       0.198807
                                                         2.987378       0.000000
                          1      15    5gxy3             0.045000       0.000134
                                                         0.113512       0.005569
                                                         0.322032       0.022768
                                                         0.930550       0.153995
                                                         2.987378       0.000000
                          1      15    5gxy2z            0.045000       0.000300
                                                         0.113512       0.012452
                                                         0.322032       0.050910
                                                         0.930550       0.344344
                                                         2.987378       0.000000
                          1      15    5gxyz2            0.045000       0.000300
                                                         0.113512       0.012452
                                                         0.322032       0.050910
                                                         0.930550       0.344344
                                                         2.987378       0.000000
                          1      15    5gxz3             0.045000       0.000134
                                                         0.113512       0.005569
                                                         0.322032       0.022768
                                                         0.930550       0.153995
                                                         2.987378       0.000000
                          1      15    5gy4              0.045000       0.000051
                                                         0.113512       0.002105
                                                         0.322032       0.008605
                                                         0.930550       0.058205
                                                         2.987378       0.000000
                          1      15    5gy3z             0.045000       0.000134
                                                         0.113512       0.005569
                                                         0.322032       0.022768
                                                         0.930550       0.153995
                                                         2.987378       0.000000
                          1      15    5gy2z2            0.045000       0.000173
                                                         0.113512       0.007189
                                                         0.322032       0.029393
                                                         0.930550       0.198807
                                                         2.987378       0.000000
                          1      15    5gyz3             0.045000       0.000134
                                                         0.113512       0.005569
                                                         0.322032       0.022768
                                                         0.930550       0.153995
                                                         2.987378       0.000000
                          1      15    5gz4              0.045000       0.000051
                                                         0.113512       0.002105
                                                         0.322032       0.008605
                                                         0.930550       0.058205
                                                         2.987378       0.000000

                          2       1    1s         

     AE Potential information for                                            ALL

       Description:                                       All-electron potential
                                          Krack, Parrinello, PCCP 2, 2105 (2000)

       Gaussian exponent of the core charge distribution:               5.979100
       Electronic configuration (s p d ...):                           4   3   0

  4. Atomic kind: C                                     Number of atoms:       5

     Orbital Basis Set                                        aug-TZVP-MOLOPT-ae

       Number of orbital shell sets:                                           2
       Number of orbital shells:                                              16
       Number of primitive Cartesian functions:                               13
       Number of Cartesian basis functions:                                   71
       Number of spherical basis functions:                                   56
       Norm type:                                                              2

       Normalised Cartesian orbitals:

                        Set   Shell   Orbital            Exponent    Coefficient

                          1       1    1s                0.040000       0.000000
                                                         0.097098       0.019281
                                                         0.283960       0.027513
                                                         0.806764       0.003692
                                                         2.441624       0.446183
                                                         6.739673       1.752510
                                                        34.417212       0.637474

                          1       2    2s                0.040000       0.000000
                                                         0.097098       0.029117
                                                         0.283960       0.094997
                                                         0.806764       0.362633
                                                         2.441624      -0.104551
                                                         6.739673      -0.288836
                                                        34.417212       1.102934

                          1       3    3s                0.040000       0.000000
                                                         0.097098       0.047046
                                                         0.283960       0.169545
                                                         0.806764      -0.252838
                                                         2.441624      -0.199197
                                                         6.739673      -0.168746
                                                        34.417212      -6.120053

                          1       4    4s                0.040000       0.000000
                                                         0.097098       0.188374
                                                         0.283960      -0.341415
                                                         0.806764       0.091223
                                                         2.441624      -0.053941
                                                         6.739673      -0.401007
                                                        34.417212      -3.786931

                          1       5    5s                0.040000       0.099533
                                                         0.097098      -0.167672
                                                         0.283960      -0.126383
                                                         0.806764       0.030074
                                                         2.441624       0.000000
                                                         6.739673       0.000000
                                                        34.417212       0.000000

                          1       6    2px               0.040000       0.000000
                                                         0.097098       0.005087
                                                         0.283960       0.032186
                                                         0.806764       0.779023
                                                         2.441624       0.695625
                                                         6.739673       2.243109
                                                        34.417212       2.016536
                          1       6    2py               0.040000       0.000000
                                                         0.097098       0.005087
                                                         0.283960       0.032186
                                                         0.806764       0.779023
                                                         2.441624       0.695625
                                                         6.739673       2.243109
                                                        34.417212       2.016536
                          1       6    2pz               0.040000       0.000000
                                                         0.097098       0.005087
                                                         0.283960       0.032186
                                                         0.806764       0.779023
                                                         2.441624       0.695625
                                                         6.739673       2.243109
                                                        34.417212       2.016536

                          1       7    3px               0.040000       0.000000
                                                         0.097098       0.008084
                                                         0.283960       0.294367
                                                         0.806764      -0.188640
                                                         2.441624       0.912249
                                                         6.739673      -2.720242
                                                        34.417212       1.690366
                          1       7    3py               0.040000       0.000000
                                                         0.097098       0.008084
                                                         0.283960       0.294367
                                                         0.806764      -0.188640
                                                         2.441624       0.912249
                                                         6.739673      -2.720242
                                                        34.417212       1.690366
                          1       7    3pz               0.040000       0.000000
                                                         0.097098       0.008084
                                                         0.283960       0.294367
                                                         0.806764      -0.188640
                                                         2.441624       0.912249
                                                         6.739673      -2.720242
                                                        34.417212       1.690366

                          1       8    4px               0.040000       0.000000
                                                         0.097098       0.081068
                                                         0.283960      -0.017243
                                                         0.806764      -0.070055
                                                         2.441624      -0.855991
                                                         6.739673       1.761645
                                                        34.417212     -12.705833
                          1       8    4py               0.040000       0.000000
                                                         0.097098       0.081068
                                                         0.283960      -0.017243
                                                         0.806764      -0.070055
                                                         2.441624      -0.855991
                                                         6.739673       1.761645
                                                        34.417212     -12.705833
                          1       8    4pz               0.040000       0.000000
                                                         0.097098       0.081068
                                                         0.283960      -0.017243
                                                         0.806764      -0.070055
                                                         2.441624      -0.855991
                                                         6.739673       1.761645
                                                        34.417212     -12.705833

                          1       9    5px               0.040000       0.032085
                                                         0.097098      -0.027366
                                                         0.283960      -0.100343
                                                         0.806764      -0.020266
                                                         2.441624       0.000000
                                                         6.739673       0.000000
                                                        34.417212       0.000000
                          1       9    5py               0.040000       0.032085
                                                         0.097098      -0.027366
                                                         0.283960      -0.100343
                                                         0.806764      -0.020266
                                                         2.441624       0.000000
                                                         6.739673       0.000000
                                                        34.417212       0.000000
                          1       9    5pz               0.040000       0.032085
                                                         0.097098      -0.027366
                                                         0.283960      -0.100343
                                                         0.806764      -0.020266
                                                         2.441624       0.000000
                                                         6.739673       0.000000
                                                        34.417212       0.000000

                          1      10    3dx2              0.040000       0.000000
                                                         0.097098       0.001415
                                                         0.283960       0.015501
                                                         0.806764       0.546922
                                                         2.441624       3.763414
                                                         6.739673       4.248634
                                                        34.417212     174.894573
                          1      10    3dxy              0.040000       0.000000
                                                         0.097098       0.002451
                                                         0.283960       0.026849
                                                         0.806764       0.947296
                                                         2.441624       6.518424
                                                         6.739673       7.358850
                                                        34.417212     302.926287
                          1      10    3dxz              0.040000       0.000000
                                                         0.097098       0.002451
                                                         0.283960       0.026849
                                                         0.806764       0.947296
                                                         2.441624       6.518424
                                                         6.739673       7.358850
                                                        34.417212     302.926287
                          1      10    3dy2              0.040000       0.000000
                                                         0.097098       0.001415
                                                         0.283960       0.015501
                                                         0.806764       0.546922
                                                         2.441624       3.763414
                                                         6.739673       4.248634
                                                        34.417212     174.894573
                          1      10    3dyz              0.040000       0.000000
                                                         0.097098       0.002451
                                                         0.283960       0.026849
                                                         0.806764       0.947296
                                                         2.441624       6.518424
                                                         6.739673       7.358850
                                                        34.417212     302.926287
                          1      10    3dz2              0.040000       0.000000
                                                         0.097098       0.001415
                                                         0.283960       0.015501
                                                         0.806764       0.546922
                                                         2.441624       3.763414
                                                         6.739673       4.248634
                                                        34.417212     174.894573

                          1      11    4dx2              0.040000       0.000000
                                                         0.097098       0.001225
                                                         0.283960       0.139703
                                                         0.806764       0.323683
                                                         2.441624      -2.510108
                                                         6.739673      -4.401044
                                                        34.417212    -164.169372
                          1      11    4dxy              0.040000       0.000000
                                                         0.097098       0.002122
                                                         0.283960       0.241972
                                                         0.806764       0.560636
                                                         2.441624      -4.347634
                                                         6.739673      -7.622831
                                                        34.417212    -284.349694
                          1      11    4dxz              0.040000       0.000000
                                                         0.097098       0.002122
                                                         0.283960       0.241972
                                                         0.806764       0.560636
                                                         2.441624      -4.347634
                                                         6.739673      -7.622831
                                                        34.417212    -284.349694
                          1      11    4dy2              0.040000       0.000000
                                                         0.097098       0.001225
                                                         0.283960       0.139703
                                                         0.806764       0.323683
                                                         2.441624      -2.510108
                                                         6.739673      -4.401044
                                                        34.417212    -164.169372
                          1      11    4dyz              0.040000       0.000000
                                                         0.097098       0.002122
                                                         0.283960       0.241972
                                                         0.806764       0.560636
                                                         2.441624      -4.347634
                                                         6.739673      -7.622831
                                                        34.417212    -284.349694
                          1      11    4dz2              0.040000       0.000000
                                                         0.097098       0.001225
                                                         0.283960       0.139703
                                                         0.806764       0.323683
                                                         2.441624      -2.510108
                                                         6.739673      -4.401044
                                                        34.417212    -164.169372

                          1      12    5dx2              0.040000       0.006049
                                                         0.097098      -0.003128
                                                         0.283960       0.033814
                                                         0.806764       0.003338
                                                         2.441624       0.000000
                                                         6.739673       0.000000
                                                        34.417212       0.000000
                          1      12    5dxy              0.040000       0.010477
                                                         0.097098      -0.005418
                                                         0.283960       0.058567
                                                         0.806764       0.005781
                                                         2.441624       0.000000
                                                         6.739673       0.000000
                                                        34.417212       0.000000
                          1      12    5dxz              0.040000       0.010477
                                                         0.097098      -0.005418
                                                         0.283960       0.058567
                                                         0.806764       0.005781
                                                         2.441624       0.000000
                                                         6.739673       0.000000
                                                        34.417212       0.000000
                          1      12    5dy2              0.040000       0.006049
                                                         0.097098      -0.003128
                                                         0.283960       0.033814
                                                         0.806764       0.003338
                                                         2.441624       0.000000
                                                         6.739673       0.000000
                                                        34.417212       0.000000
                          1      12    5dyz              0.040000       0.010477
                                                         0.097098      -0.005418
                                                         0.283960       0.058567
                                                         0.806764       0.005781
                                                         2.441624       0.000000
                                                         6.739673       0.000000
                                                        34.417212       0.000000
                          1      12    5dz2              0.040000       0.006049
                                                         0.097098      -0.003128
                                                         0.283960       0.033814
                                                         0.806764       0.003338
                                                         2.441624       0.000000
                                                         6.739673       0.000000
                                                        34.417212       0.000000

                          1      13    4fx3              0.040000       0.000000
                                                         0.097098      -0.000799
                                                         0.283960       0.042127
                                                         0.806764       0.576468
                                                         2.441624       1.033755
                                                         6.739673      -2.026957
                                                        34.417212      49.427593
                          1      13    4fx2y             0.040000       0.000000
                                                         0.097098      -0.001786
                                                         0.283960       0.094199
                                                         0.806764       1.289022
                                                         2.441624       2.311546
                                                         6.739673      -4.532415
                                                        34.417212     110.523457
                          1      13    4fx2z             0.040000       0.000000
                                                         0.097098      -0.001786
                                                         0.283960       0.094199
                                                         0.806764       1.289022
                                                         2.441624       2.311546
                                                         6.739673      -4.532415
                                                        34.417212     110.523457
                          1      13    4fxy2             0.040000       0.000000
                                                         0.097098      -0.001786
                                                         0.283960       0.094199
                                                         0.806764       1.289022
                                                         2.441624       2.311546
                                                         6.739673      -4.532415
                                                        34.417212     110.523457
                          1      13    4fxyz             0.040000       0.000000
                                                         0.097098      -0.003093
                                                         0.283960       0.163158
                                                         0.806764       2.232651
                                                         2.441624       4.003716
                                                         6.739673      -7.850372
                                                        34.417212     191.432243
                          1      13    4fxz2             0.040000       0.000000
                                                         0.097098      -0.001786
                                                         0.283960       0.094199
                                                         0.806764       1.289022
                                                         2.441624       2.311546
                                                         6.739673      -4.532415
                                                        34.417212     110.523457
                          1      13    4fy3              0.040000       0.000000
                                                         0.097098      -0.000799
                                                         0.283960       0.042127
                                                         0.806764       0.576468
                                                         2.441624       1.033755
                                                         6.739673      -2.026957
                                                        34.417212      49.427593
                          1      13    4fy2z             0.040000       0.000000
                                                         0.097098      -0.001786
                                                         0.283960       0.094199
                                                         0.806764       1.289022
                                                         2.441624       2.311546
                                                         6.739673      -4.532415
                                                        34.417212     110.523457
                          1      13    4fyz2             0.040000       0.000000
                                                         0.097098      -0.001786
                                                         0.283960       0.094199
                                                         0.806764       1.289022
                                                         2.441624       2.311546
                                                         6.739673      -4.532415
                                                        34.417212     110.523457
                          1      13    4fz3              0.040000       0.000000
                                                         0.097098      -0.000799
                                                         0.283960       0.042127
                                                         0.806764       0.576468
                                                         2.441624       1.033755
                                                         6.739673      -2.026957
                                                        34.417212      49.427593

                          1      14    5fx3              0.040000       0.000092
                                                         0.097098       0.001511
                                                         0.283960      -0.094589
                                                         0.806764       0.000869
                                                         2.441624       0.000000
                                                         6.739673       0.000000
                                                        34.417212       0.000000
                          1      14    5fx2y             0.040000       0.000206
                                                         0.097098       0.003380
                                                         0.283960      -0.211507
                                                         0.806764       0.001943
                                                         2.441624       0.000000
                                                         6.739673       0.000000
                                                        34.417212       0.000000
                          1      14    5fx2z             0.040000       0.000206
                                                         0.097098       0.003380
                                                         0.283960      -0.211507
                                                         0.806764       0.001943
                                                         2.441624       0.000000
                                                         6.739673       0.000000
                                                        34.417212       0.000000
                          1      14    5fxy2             0.040000       0.000206
                                                         0.097098       0.003380
                                                         0.283960      -0.211507
                                                         0.806764       0.001943
                                                         2.441624       0.000000
                                                         6.739673       0.000000
                                                        34.417212       0.000000
                          1      14    5fxyz             0.040000       0.000357
                                                         0.097098       0.005854
                                                         0.283960      -0.366341
                                                         0.806764       0.003365
                                                         2.441624       0.000000
                                                         6.739673       0.000000
                                                        34.417212       0.000000
                          1      14    5fxz2             0.040000       0.000206
                                                         0.097098       0.003380
                                                         0.283960      -0.211507
                                                         0.806764       0.001943
                                                         2.441624       0.000000
                                                         6.739673       0.000000
                                                        34.417212       0.000000
                          1      14    5fy3              0.040000       0.000092
                                                         0.097098       0.001511
                                                         0.283960      -0.094589
                                                         0.806764       0.000869
                                                         2.441624       0.000000
                                                         6.739673       0.000000
                                                        34.417212       0.000000
                          1      14    5fy2z             0.040000       0.000206
                                                         0.097098       0.003380
                                                         0.283960      -0.211507
                                                         0.806764       0.001943
                                                         2.441624       0.000000
                                                         6.739673       0.000000
                                                        34.417212       0.000000
                          1      14    5fyz2             0.040000       0.000206
                                                         0.097098       0.003380
                                                         0.283960      -0.211507
                                                         0.806764       0.001943
                                                         2.441624       0.000000
                                                         6.739673       0.000000
                                                        34.417212       0.000000
                          1      14    5fz3              0.040000       0.000092
                                                         0.097098       0.001511
                                                         0.283960      -0.094589
                                                         0.806764       0.000869
                                                         2.441624       0.000000
                                                         6.739673       0.000000
                                                        34.417212       0.000000

                          1      15    5gx4              0.040000       0.000014
                                                         0.097098       0.001608
                                                         0.283960       0.004604
                                                         0.806764      -0.003474
                                                         2.441624       0.000000
                                                         6.739673       0.000000
                                                        34.417212       0.000000
                          1      15    5gx3y             0.040000       0.000036
                                                         0.097098       0.004255
                                                         0.283960       0.012180
                                                         0.806764      -0.009191
                                                         2.441624       0.000000
                                                         6.739673       0.000000
                                                        34.417212       0.000000
                          1      15    5gx3z             0.040000       0.000036
                                                         0.097098       0.004255
                                                         0.283960       0.012180
                                                         0.806764      -0.009191
                                                         2.441624       0.000000
                                                         6.739673       0.000000
                                                        34.417212       0.000000
                          1      15    5gx2y2            0.040000       0.000046
                                                         0.097098       0.005493
                                                         0.283960       0.015725
                                                         0.806764      -0.011865
                                                         2.441624       0.000000
                                                         6.739673       0.000000
                                                        34.417212       0.000000
                          1      15    5gx2yz            0.040000       0.000080
                                                         0.097098       0.009514
                                                         0.283960       0.027236
                                                         0.806764      -0.020551
                                                         2.441624       0.000000
                                                         6.739673       0.000000
                                                        34.417212       0.000000
                          1      15    5gx2z2            0.040000       0.000046
                                                         0.097098       0.005493
                                                         0.283960       0.015725
                                                         0.806764      -0.011865
                                                         2.441624       0.000000
                                                         6.739673       0.000000
                                                        34.417212       0.000000
                          1      15    5gxy3             0.040000       0.000036
                                                         0.097098       0.004255
                                                         0.283960       0.012180
                                                         0.806764      -0.009191
                                                         2.441624       0.000000
                                                         6.739673       0.000000
                                                        34.417212       0.000000
                          1      15    5gxy2z            0.040000       0.000080
                                                         0.097098       0.009514
                                                         0.283960       0.027236
                                                         0.806764      -0.020551
                                                         2.441624       0.000000
                                                         6.739673       0.000000
                                                        34.417212       0.000000
                          1      15    5gxyz2            0.040000       0.000080
                                                         0.097098       0.009514
                                                         0.283960       0.027236
                                                         0.806764      -0.020551
                                                         2.441624       0.000000
                                                         6.739673       0.000000
                                                        34.417212       0.000000
                          1      15    5gxz3             0.040000       0.000036
                                                         0.097098       0.004255
                                                         0.283960       0.012180
                                                         0.806764      -0.009191
                                                         2.441624       0.000000
                                                         6.739673       0.000000
                                                        34.417212       0.000000
                          1      15    5gy4              0.040000       0.000014
                                                         0.097098       0.001608
                                                         0.283960       0.004604
                                                         0.806764      -0.003474
                                                         2.441624       0.000000
                                                         6.739673       0.000000
                                                        34.417212       0.000000
                          1      15    5gy3z             0.040000       0.000036
                                                         0.097098       0.004255
                                                         0.283960       0.012180
                                                         0.806764      -0.009191
                                                         2.441624       0.000000
                                                         6.739673       0.000000
                                                        34.417212       0.000000
                          1      15    5gy2z2            0.040000       0.000046
                                                         0.097098       0.005493
                                                         0.283960       0.015725
                                                         0.806764      -0.011865
                                                         2.441624       0.000000
                                                         6.739673       0.000000
                                                        34.417212       0.000000
                          1      15    5gyz3             0.040000       0.000036
                                                         0.097098       0.004255
                                                         0.283960       0.012180
                                                         0.806764      -0.009191
                                                         2.441624       0.000000
                                                         6.739673       0.000000
                                                        34.417212       0.000000
                          1      15    5gz4              0.040000       0.000014
                                                         0.097098       0.001608
                                                         0.283960       0.004604
                                                         0.806764      -0.003474
                                                         2.441624       0.000000
                                                         6.739673       0.000000
                                                        34.417212       0.000000

                          2       1    1s            13575.369584       0.323227
                                                      2035.237517       2.062509
                                                       463.111112       2.210797
                                                       131.318553       4.954487
                                                        42.899593       1.730189
                                                        15.855102       4.257999

     RI Auxiliary Basis Set             RI_aug-TZVP-MOLOPT-ae_N_RI_084_s_p_d_f_g

       Number of orbital shell sets:                                          22
       Number of orbital shells:                                              22
       Number of primitive Cartesian functions:                               22
       Number of Cartesian basis functions:                                  109
       Number of spherical basis functions:                                   84
       Norm type:                                                              2

       Normalised Cartesian orbitals:

                        Set   Shell   Orbital            Exponent    Coefficient

                          1       1    1s                0.147576       0.169696

                          2       1   14dx2              0.227944       0.123768
                          2       1   14dxy              0.227944       0.214373
                          2       1   14dxz              0.227944       0.214373
                          2       1   14dy2              0.227944       0.123768
                          2       1   14dyz              0.227944       0.214373
                          2       1   14dz2              0.227944       0.123768

                          3       1    2s                0.273551       0.269581

                          4       1    8px               0.344563       0.376293
                          4       1    8py               0.344563       0.376293
                          4       1    8pz               0.344563       0.376293

                          5       1   15dx2              0.431259       0.377747
                          5       1   15dxy              0.431259       0.654277
                          5       1   15dxz              0.431259       0.654277
                          5       1   15dy2              0.431259       0.377747
                          5       1   15dyz              0.431259       0.654277
                          5       1   15dz2              0.431259       0.377747

                          6       1    9px               0.491365       0.586402
                          6       1    9py               0.491365       0.586402
                          6       1    9pz               0.491365       0.586402

                          7       1   18fx3              0.535555       0.361213
                          7       1   18fx2y             0.535555       0.807698
                          7       1   18fx2z             0.535555       0.807698
                          7       1   18fxy2             0.535555       0.807698
                          7       1   18fxyz             0.535555       1.398974
                          7       1   18fxz2             0.535555       0.807698
                          7       1   18fy3              0.535555       0.361213
                          7       1   18fy2z             0.535555       0.807698
                          7       1   18fyz2             0.535555       0.807698
                          7       1   18fz3              0.535555       0.361213

                          8       1   21gx4              0.546718       0.211488
                          8       1   21gx3y             0.546718       0.559544
                          8       1   21gx3z             0.546718       0.559544
                          8       1   21gx2y2            0.546718       0.722368
                          8       1   21gx2yz            0.546718       1.251178
                          8       1   21gx2z2            0.546718       0.722368
                          8       1   21gxy3             0.546718       0.559544
                          8       1   21gxy2z            0.546718       1.251178
                          8       1   21gxyz2            0.546718       1.251178
                          8       1   21gxz3             0.546718       0.559544
                          8       1   21gy4              0.546718       0.211488
                          8       1   21gy3z             0.546718       0.559544
                          8       1   21gy2z2            0.546718       0.722368
                          8       1   21gyz3             0.546718       0.559544
                          8       1   21gz4              0.546718       0.211488

                          9       1    3s                0.761387       0.580917

                         10       1   10px               1.111161       1.626154
                         10       1   10py               1.111161       1.626154
                         10       1   10pz               1.111161       1.626154

                         11       1   16dx2              1.243003       2.408439
                         11       1   16dxy              1.243003       4.171539
                         11       1   16dxz              1.243003       4.171539
                         11       1   16dy2              1.243003       2.408439
                         11       1   16dyz              1.243003       4.171539
                         11       1   16dz2              1.243003       2.408439

                         12       1   19fx3              1.345800       2.871840
                         12       1   19fx2y             1.345800       6.421631
                         12       1   19fx2z             1.345800       6.421631
                         12       1   19fxy2             1.345800       6.421631
                         12       1   19fxyz             1.345800      11.122590
                         12       1   19fxz2             1.345800       6.421631
                         12       1   19fy3              1.345800       2.871840
                         12       1   19fy2z             1.345800       6.421631
                         12       1   19fyz2             1.345800       6.421631
                         12       1   19fz3              1.345800       2.871840

                         13       1   22gx4              1.738475       5.092122
                         13       1   22gx3y             1.738475      13.472488
                         13       1   22gx3z             1.738475      13.472488
                         13       1   22gx2y2            1.738475      17.392907
                         13       1   22gx2yz            1.738475      30.125398
                         13       1   22gx2z2            1.738475      17.392907
                         13       1   22gxy3             1.738475      13.472488
                         13       1   22gxy2z            1.738475      30.125398
                         13       1   22gxyz2            1.738475      30.125398
                         13       1   22gxz3             1.738475      13.472488
                         13       1   22gy4              1.738475       5.092122
                         13       1   22gy3z             1.738475      13.472488
                         13       1   22gy2z2            1.738475      17.392907
                         13       1   22gyz3             1.738475      13.472488
                         13       1   22gz4              1.738475       5.092122

                         14       1    4s                2.313716       1.337035

                         15       1   11px               2.809557       5.184865
                         15       1   11py               2.809557       5.184865
                         15       1   11pz               2.809557       5.184865

                         16       1   20fx3              3.742098      28.672363
                         16       1   20fx2y             3.742098      64.113352
                         16       1   20fx2z             3.742098      64.113352
                         16       1   20fxy2             3.742098      64.113352
                         16       1   20fxyz             3.742098     111.047584
                         16       1   20fxz2             3.742098      64.113352
                         16       1   20fy3              3.742098      28.672363
                         16       1   20fy2z             3.742098      64.113352
                         16       1   20fyz2             3.742098      64.113352
                         16       1   20fz3              3.742098      28.672363

                         17       1   17dx2              3.770525      16.792392
                         17       1   17dxy              3.770525      29.085276
                         17       1   17dxz              3.770525      29.085276
                         17       1   17dy2              3.770525      16.792392
                         17       1   17dyz              3.770525      29.085276
                         17       1   17dz2              3.770525      16.792392

                         18       1   12px               7.057188      16.395690
                         18       1   12py               7.057188      16.395690
                         18       1   12pz               7.057188      16.395690

                         19       1    5s                7.897394       3.357553

                         20       1   13px              17.038054      49.341809
                         20       1   13py              17.038054      49.341809
                         20       1   13pz              17.038054      49.341809

                         21       1    6s               26.799502       8.394699

                         22       1    7s               81.485081      19.329413

       Atomic covalent radius [Angstrom]:                                  0.770

       Atomic van der Waals radius [Angstrom]:                             1.700

     The atoms of this atomic kind are PAW atoms (GAPW):
       Hard Gaussian function radius:                                      1.512
       Rho0 radius:                                                        1.512
       Maximum GTO radius used for PAW projector construction:            24.566

     GAPW Soft Basis Set                                 aug-TZVP-MOLOPT-ae_soft

       Number of orbital shell sets:                                           2
       Number of orbital shells:                                              16
       Number of primitive Cartesian functions:                                5
       Number of Cartesian basis functions:                                   71
       Number of spherical basis functions:                                   56
       Norm type:                                                              2

       Normalised Cartesian orbitals:

                        Set   Shell   Orbital            Exponent    Coefficient

                          1       1    1s                0.040000       0.000000
                                                         0.097098       0.019281
                                                         0.283960       0.027513
                                                         0.806764       0.003692
                                                         2.441624       0.446183

                          1       2    2s                0.040000       0.000000
                                                         0.097098       0.029117
                                                         0.283960       0.094997
                                                         0.806764       0.362633
                                                         2.441624      -0.104551

                          1       3    3s                0.040000       0.000000
                                                         0.097098       0.047046
                                                         0.283960       0.169545
                                                         0.806764      -0.252838
                                                         2.441624      -0.199197

                          1       4    4s                0.040000       0.000000
                                                         0.097098       0.188374
                                                         0.283960      -0.341415
                                                         0.806764       0.091223
                                                         2.441624      -0.053941

                          1       5    5s                0.040000       0.099533
                                                         0.097098      -0.167672
                                                         0.283960      -0.126383
                                                         0.806764       0.030074
                                                         2.441624       0.000000

                          1       6    2px               0.040000       0.000000
                                                         0.097098       0.005087
                                                         0.283960       0.032186
                                                         0.806764       0.779023
                                                         2.441624       0.695625
                          1       6    2py               0.040000       0.000000
                                                         0.097098       0.005087
                                                         0.283960       0.032186
                                                         0.806764       0.779023
                                                         2.441624       0.695625
                          1       6    2pz               0.040000       0.000000
                                                         0.097098       0.005087
                                                         0.283960       0.032186
                                                         0.806764       0.779023
                                                         2.441624       0.695625

                          1       7    3px               0.040000       0.000000
                                                         0.097098       0.008084
                                                         0.283960       0.294367
                                                         0.806764      -0.188640
                                                         2.441624       0.912249
                          1       7    3py               0.040000       0.000000
                                                         0.097098       0.008084
                                                         0.283960       0.294367
                                                         0.806764      -0.188640
                                                         2.441624       0.912249
                          1       7    3pz               0.040000       0.000000
                                                         0.097098       0.008084
                                                         0.283960       0.294367
                                                         0.806764      -0.188640
                                                         2.441624       0.912249

                          1       8    4px               0.040000       0.000000
                                                         0.097098       0.081068
                                                         0.283960      -0.017243
                                                         0.806764      -0.070055
                                                         2.441624      -0.855991
                          1       8    4py               0.040000       0.000000
                                                         0.097098       0.081068
                                                         0.283960      -0.017243
                                                         0.806764      -0.070055
                                                         2.441624      -0.855991
                          1       8    4pz               0.040000       0.000000
                                                         0.097098       0.081068
                                                         0.283960      -0.017243
                                                         0.806764      -0.070055
                                                         2.441624      -0.855991

                          1       9    5px               0.040000       0.032085
                                                         0.097098      -0.027366
                                                         0.283960      -0.100343
                                                         0.806764      -0.020266
                                                         2.441624       0.000000
                          1       9    5py               0.040000       0.032085
                                                         0.097098      -0.027366
                                                         0.283960      -0.100343
                                                         0.806764      -0.020266
                                                         2.441624       0.000000
                          1       9    5pz               0.040000       0.032085
                                                         0.097098      -0.027366
                                                         0.283960      -0.100343
                                                         0.806764      -0.020266
                                                         2.441624       0.000000

                          1      10    3dx2              0.040000       0.000000
                                                         0.097098       0.001415
                                                         0.283960       0.015501
                                                         0.806764       0.546922
                                                         2.441624       3.763414
                          1      10    3dxy              0.040000       0.000000
                                                         0.097098       0.002451
                                                         0.283960       0.026849
                                                         0.806764       0.947296
                                                         2.441624       6.518424
                          1      10    3dxz              0.040000       0.000000
                                                         0.097098       0.002451
                                                         0.283960       0.026849
                                                         0.806764       0.947296
                                                         2.441624       6.518424
                          1      10    3dy2              0.040000       0.000000
                                                         0.097098       0.001415
                                                         0.283960       0.015501
                                                         0.806764       0.546922
                                                         2.441624       3.763414
                          1      10    3dyz              0.040000       0.000000
                                                         0.097098       0.002451
                                                         0.283960       0.026849
                                                         0.806764       0.947296
                                                         2.441624       6.518424
                          1      10    3dz2              0.040000       0.000000
                                                         0.097098       0.001415
                                                         0.283960       0.015501
                                                         0.806764       0.546922
                                                         2.441624       3.763414

                          1      11    4dx2              0.040000       0.000000
                                                         0.097098       0.001225
                                                         0.283960       0.139703
                                                         0.806764       0.323683
                                                         2.441624      -2.510108
                          1      11    4dxy              0.040000       0.000000
                                                         0.097098       0.002122
                                                         0.283960       0.241972
                                                         0.806764       0.560636
                                                         2.441624      -4.347634
                          1      11    4dxz              0.040000       0.000000
                                                         0.097098       0.002122
                                                         0.283960       0.241972
                                                         0.806764       0.560636
                                                         2.441624      -4.347634
                          1      11    4dy2              0.040000       0.000000
                                                         0.097098       0.001225
                                                         0.283960       0.139703
                                                         0.806764       0.323683
                                                         2.441624      -2.510108
                          1      11    4dyz              0.040000       0.000000
                                                         0.097098       0.002122
                                                         0.283960       0.241972
                                                         0.806764       0.560636
                                                         2.441624      -4.347634
                          1      11    4dz2              0.040000       0.000000
                                                         0.097098       0.001225
                                                         0.283960       0.139703
                                                         0.806764       0.323683
                                                         2.441624      -2.510108

                          1      12    5dx2              0.040000       0.006049
                                                         0.097098      -0.003128
                                                         0.283960       0.033814
                                                         0.806764       0.003338
                                                         2.441624       0.000000
                          1      12    5dxy              0.040000       0.010477
                                                         0.097098      -0.005418
                                                         0.283960       0.058567
                                                         0.806764       0.005781
                                                         2.441624       0.000000
                          1      12    5dxz              0.040000       0.010477
                                                         0.097098      -0.005418
                                                         0.283960       0.058567
                                                         0.806764       0.005781
                                                         2.441624       0.000000
                          1      12    5dy2              0.040000       0.006049
                                                         0.097098      -0.003128
                                                         0.283960       0.033814
                                                         0.806764       0.003338
                                                         2.441624       0.000000
                          1      12    5dyz              0.040000       0.010477
                                                         0.097098      -0.005418
                                                         0.283960       0.058567
                                                         0.806764       0.005781
                                                         2.441624       0.000000
                          1      12    5dz2              0.040000       0.006049
                                                         0.097098      -0.003128
                                                         0.283960       0.033814
                                                         0.806764       0.003338
                                                         2.441624       0.000000

                          1      13    4fx3              0.040000       0.000000
                                                         0.097098      -0.000799
                                                         0.283960       0.042127
                                                         0.806764       0.576468
                                                         2.441624       1.033755
                          1      13    4fx2y             0.040000       0.000000
                                                         0.097098      -0.001786
                                                         0.283960       0.094199
                                                         0.806764       1.289022
                                                         2.441624       2.311546
                          1      13    4fx2z             0.040000       0.000000
                                                         0.097098      -0.001786
                                                         0.283960       0.094199
                                                         0.806764       1.289022
                                                         2.441624       2.311546
                          1      13    4fxy2             0.040000       0.000000
                                                         0.097098      -0.001786
                                                         0.283960       0.094199
                                                         0.806764       1.289022
                                                         2.441624       2.311546
                          1      13    4fxyz             0.040000       0.000000
                                                         0.097098      -0.003093
                                                         0.283960       0.163158
                                                         0.806764       2.232651
                                                         2.441624       4.003716
                          1      13    4fxz2             0.040000       0.000000
                                                         0.097098      -0.001786
                                                         0.283960       0.094199
                                                         0.806764       1.289022
                                                         2.441624       2.311546
                          1      13    4fy3              0.040000       0.000000
                                                         0.097098      -0.000799
                                                         0.283960       0.042127
                                                         0.806764       0.576468
                                                         2.441624       1.033755
                          1      13    4fy2z             0.040000       0.000000
                                                         0.097098      -0.001786
                                                         0.283960       0.094199
                                                         0.806764       1.289022
                                                         2.441624       2.311546
                          1      13    4fyz2             0.040000       0.000000
                                                         0.097098      -0.001786
                                                         0.283960       0.094199
                                                         0.806764       1.289022
                                                         2.441624       2.311546
                          1      13    4fz3              0.040000       0.000000
                                                         0.097098      -0.000799
                                                         0.283960       0.042127
                                                         0.806764       0.576468
                                                         2.441624       1.033755

                          1      14    5fx3              0.040000       0.000092
                                                         0.097098       0.001511
                                                         0.283960      -0.094589
                                                         0.806764       0.000869
                                                         2.441624       0.000000
                          1      14    5fx2y             0.040000       0.000206
                                                         0.097098       0.003380
                                                         0.283960      -0.211507
                                                         0.806764       0.001943
                                                         2.441624       0.000000
                          1      14    5fx2z             0.040000       0.000206
                                                         0.097098       0.003380
                                                         0.283960      -0.211507
                                                         0.806764       0.001943
                                                         2.441624       0.000000
                          1      14    5fxy2             0.040000       0.000206
                                                         0.097098       0.003380
                                                         0.283960      -0.211507
                                                         0.806764       0.001943
                                                         2.441624       0.000000
                          1      14    5fxyz             0.040000       0.000357
                                                         0.097098       0.005854
                                                         0.283960      -0.366341
                                                         0.806764       0.003365
                                                         2.441624       0.000000
                          1      14    5fxz2             0.040000       0.000206
                                                         0.097098       0.003380
                                                         0.283960      -0.211507
                                                         0.806764       0.001943
                                                         2.441624       0.000000
                          1      14    5fy3              0.040000       0.000092
                                                         0.097098       0.001511
                                                         0.283960      -0.094589
                                                         0.806764       0.000869
                                                         2.441624       0.000000
                          1      14    5fy2z             0.040000       0.000206
                                                         0.097098       0.003380
                                                         0.283960      -0.211507
                                                         0.806764       0.001943
                                                         2.441624       0.000000
                          1      14    5fyz2             0.040000       0.000206
                                                         0.097098       0.003380
                                                         0.283960      -0.211507
                                                         0.806764       0.001943
                                                         2.441624       0.000000
                          1      14    5fz3              0.040000       0.000092
                                                         0.097098       0.001511
                                                         0.283960      -0.094589
                                                         0.806764       0.000869
                                                         2.441624       0.000000

                          1      15    5gx4              0.040000       0.000014
                                                         0.097098       0.001608
                                                         0.283960       0.004604
                                                         0.806764      -0.003474
                                                         2.441624       0.000000
                          1      15    5gx3y             0.040000       0.000036
                                                         0.097098       0.004255
                                                         0.283960       0.012180
                                                         0.806764      -0.009191
                                                         2.441624       0.000000
                          1      15    5gx3z             0.040000       0.000036
                                                         0.097098       0.004255
                                                         0.283960       0.012180
                                                         0.806764      -0.009191
                                                         2.441624       0.000000
                          1      15    5gx2y2            0.040000       0.000046
                                                         0.097098       0.005493
                                                         0.283960       0.015725
                                                         0.806764      -0.011865
                                                         2.441624       0.000000
                          1      15    5gx2yz            0.040000       0.000080
                                                         0.097098       0.009514
                                                         0.283960       0.027236
                                                         0.806764      -0.020551
                                                         2.441624       0.000000
                          1      15    5gx2z2            0.040000       0.000046
                                                         0.097098       0.005493
                                                         0.283960       0.015725
                                                         0.806764      -0.011865
                                                         2.441624       0.000000
                          1      15    5gxy3             0.040000       0.000036
                                                         0.097098       0.004255
                                                         0.283960       0.012180
                                                         0.806764      -0.009191
                                                         2.441624       0.000000
                          1      15    5gxy2z            0.040000       0.000080
                                                         0.097098       0.009514
                                                         0.283960       0.027236
                                                         0.806764      -0.020551
                                                         2.441624       0.000000
                          1      15    5gxyz2            0.040000       0.000080
                                                         0.097098       0.009514
                                                         0.283960       0.027236
                                                         0.806764      -0.020551
                                                         2.441624       0.000000
                          1      15    5gxz3             0.040000       0.000036
                                                         0.097098       0.004255
                                                         0.283960       0.012180
                                                         0.806764      -0.009191
                                                         2.441624       0.000000
                          1      15    5gy4              0.040000       0.000014
                                                         0.097098       0.001608
                                                         0.283960       0.004604
                                                         0.806764      -0.003474
                                                         2.441624       0.000000
                          1      15    5gy3z             0.040000       0.000036
                                                         0.097098       0.004255
                                                         0.283960       0.012180
                                                         0.806764      -0.009191
                                                         2.441624       0.000000
                          1      15    5gy2z2            0.040000       0.000046
                                                         0.097098       0.005493
                                                         0.283960       0.015725
                                                         0.806764      -0.011865
                                                         2.441624       0.000000
                          1      15    5gyz3             0.040000       0.000036
                                                         0.097098       0.004255
                                                         0.283960       0.012180
                                                         0.806764      -0.009191
                                                         2.441624       0.000000
                          1      15    5gz4              0.040000       0.000014
                                                         0.097098       0.001608
                                                         0.283960       0.004604
                                                         0.806764      -0.003474
                                                         2.441624       0.000000

                          2       1    1s         

     AE Potential information for                                            ALL

       Description:                                       All-electron potential
                                          Krack, Parrinello, PCCP 2, 2105 (2000)

       Gaussian exponent of the core charge distribution:               4.109048
       Electronic configuration (s p d ...):                           4   2   0


 MOLECULE KIND INFORMATION


 All atoms are their own molecule, skipping detailed information


 TOTAL NUMBERS AND MAXIMUM NUMBERS

  Total number of            - Atomic kinds:                                   4
                             - Atoms:                                         17
                             - Shell sets:                                    26
                             - Shells:                                       216
                             - Primitive Cartesian functions:                165
                             - Cartesian basis functions:                    839
                             - Spherical basis functions:                    688

  Maximum angular momentum of the orbital basis functions:                     4


 MODULE QUICKSTEP: ATOMIC COORDINATES IN ANGSTROM

   Atom Kind Element         X             Y             Z       Z(eff)     Mass
      1    1 O     8     12.425847     14.054194     14.720141   8.0000  15.9994
      2    1 O     8     13.642175     14.840511     12.291558   8.0000  15.9994
      3    2 H     1     15.887793     15.819680     12.637299   1.0000   1.0079
      4    3 N     7     15.515190     15.382272     13.475586   7.0000  14.0067
      5    4 C     6     14.244947     14.881342     13.349876   6.0000  12.0107
      6    4 C     6     13.610211     14.335090     14.662036   6.0000  12.0107
      7    3 N     7     14.465546     14.212424     15.728063   7.0000  14.0067
      8    2 H     1     14.063258     13.757817     16.544863   1.0000   1.0079
      9    4 C     6     15.916060     14.389621     15.664957   6.0000  12.0107
     10    2 H     1     16.383994     13.491639     15.218192   1.0000   1.0079
     11    4 C     6     16.196923     15.574404     14.746606   6.0000  12.0107
     12    2 H     1     15.874763     16.508361     15.242888   1.0000   1.0079
     13    2 H     1     17.276172     15.646665     14.559369   1.0000   1.0079
     14    4 C     6     16.483308     14.600597     17.064045   6.0000  12.0107
     15    2 H     1     16.266768     13.737898     17.708442   1.0000   1.0079
     16    2 H     1     16.054279     15.496511     17.532864   1.0000   1.0079
     17    2 H     1     17.574153     14.715167     17.023838   1.0000   1.0079



 SCF PARAMETERS         Density guess:                                    ATOMIC
                        --------------------------------------------------------
                        max_scf:                                             500
                        max_scf_history:                                       0
                        max_diis:                                              4
                        --------------------------------------------------------
                        eps_scf:                                        1.00E-06
                        eps_scf_history:                                0.00E+00
                        eps_diis:                                       1.00E-01
                        eps_eigval:                                     1.00E-05
                        --------------------------------------------------------
                        level_shift [a.u.]:                             0.000000
                        added MOs                                       654    0
                        --------------------------------------------------------
                        Mixing method:                            BROYDEN_MIXING
                                                charge density mixing in g-space
                        --------------------------------------------------------
                        No outer SCF

 PW_GRID| Information for grid number                                          1
 PW_GRID| Grid distributed over                                   192 processors
 PW_GRID| Real space group dimensions                                   192    1
 PW_GRID| the grid is blocked:                                                NO
 PW_GRID| Cutoff [a.u.]                                                    250.0
 PW_GRID| spherical cutoff:                                                   NO
 PW_GRID|   Bounds   1           -202     202                Points:         405
 PW_GRID|   Bounds   2           -202     202                Points:         405
 PW_GRID|   Bounds   3           -202     202                Points:         405
 PW_GRID| Volume element (a.u.^3)  0.2743E-02     Volume (a.u.^3)    182205.0337
 PW_GRID| Grid span                                                    FULLSPACE
 PW_GRID|   Distribution                         Average         Max         Min
 PW_GRID|   G-Vectors                           345990.2      346275      345870
 PW_GRID|   G-Rays                                 854.3         855         854
 PW_GRID|   Real Space Points                   345990.2      492075      328050

 PW_GRID| Information for grid number                                          2
 PW_GRID| Number of the reference grid                                         1
 PW_GRID| Grid distributed over                                   192 processors
 PW_GRID| Real space group dimensions                                   192    1
 PW_GRID| the grid is blocked:                                                NO
 PW_GRID| Cutoff [a.u.]                                                     83.3
 PW_GRID| spherical cutoff:                                                   NO
 PW_GRID|   Bounds   1           -120     119                Points:         240
 PW_GRID|   Bounds   2           -120     119                Points:         240
 PW_GRID|   Bounds   3           -120     119                Points:         240
 PW_GRID| Volume element (a.u.^3)  0.1318E-01     Volume (a.u.^3)    182205.0337
 PW_GRID| Grid span                                                    FULLSPACE
 PW_GRID|   Distribution                         Average         Max         Min
 PW_GRID|   G-Vectors                            72000.0       72240       71760
 PW_GRID|   G-Rays                                 300.0         301         299
 PW_GRID|   Real Space Points                    72000.0      115200       57600

 PW_GRID| Information for grid number                                          3
 PW_GRID| Number of the reference grid                                         1
 PW_GRID| Grid distributed over                                   192 processors
 PW_GRID| Real space group dimensions                                    12   16
 PW_GRID| the grid is blocked:                                                NO
 PW_GRID| Cutoff [a.u.]                                                     27.8
 PW_GRID| spherical cutoff:                                                   NO
 PW_GRID|   Bounds   1            -67      67                Points:         135
 PW_GRID|   Bounds   2            -67      67                Points:         135
 PW_GRID|   Bounds   3            -67      67                Points:         135
 PW_GRID| Volume element (a.u.^3)  0.7406E-01     Volume (a.u.^3)    182205.0337
 PW_GRID| Grid span                                                    FULLSPACE
 PW_GRID|   Distribution                         Average         Max         Min
 PW_GRID|   G-Vectors                            12814.5       12960       12690
 PW_GRID|   G-Rays                                  94.9          96          94
 PW_GRID|   Real Space Points                    12814.5       14580       11880

 PW_GRID| Information for grid number                                          4
 PW_GRID| Number of the reference grid                                         1
 PW_GRID| Grid distributed over                                   192 processors
 PW_GRID| Real space group dimensions                                    12   16
 PW_GRID| the grid is blocked:                                                NO
 PW_GRID| Cutoff [a.u.]                                                      9.3
 PW_GRID| spherical cutoff:                                                   NO
 PW_GRID|   Bounds   1            -40      39                Points:          80
 PW_GRID|   Bounds   2            -40      39                Points:          80
 PW_GRID|   Bounds   3            -40      39                Points:          80
 PW_GRID| Volume element (a.u.^3)  0.3559         Volume (a.u.^3)    182205.0337
 PW_GRID| Grid span                                                    FULLSPACE
 PW_GRID|   Distribution                         Average         Max         Min
 PW_GRID|   G-Vectors                             2666.7        2800        2560
 PW_GRID|   G-Rays                                  33.3          35          32
 PW_GRID|   Real Space Points                     2666.7        2800        2400

 POISSON| Solver                                                         WAVELET
 POISSON| Wavelet| Scaling function                                           40
 POISSON| Periodicity                                                       NONE

 RS_GRID| Information for grid number                                          1
 RS_GRID|   Bounds   1           -202     202                Points:         405
 RS_GRID|   Bounds   2           -202     202                Points:         405
 RS_GRID|   Bounds   3           -202     202                Points:         405
 RS_GRID| Real space distribution over                                  4 groups
 RS_GRID| Real space distribution along direction                              1
 RS_GRID| Border size                                                         37
 RS_GRID| Real space distribution over                                  6 groups
 RS_GRID| Real space distribution along direction                              2
 RS_GRID| Border size                                                         37
 RS_GRID| Real space distribution over                                  8 groups
 RS_GRID| Real space distribution along direction                              3
 RS_GRID| Border size                                                         37
 RS_GRID|   Distribution                         Average         Max         Min
 RS_GRID|   Planes                                 175.2         176         175
 RS_GRID|   Distribution                         Average         Max         Min
 RS_GRID|   Planes                                 141.5         142         141
 RS_GRID|   Distribution                         Average         Max         Min
 RS_GRID|   Planes                                 124.6         125         124

 RS_GRID| Information for grid number                                          2
 RS_GRID|   Bounds   1           -120     119                Points:         240
 RS_GRID|   Bounds   2           -120     119                Points:         240
 RS_GRID|   Bounds   3           -120     119                Points:         240
 RS_GRID| Real space distribution over                                  4 groups
 RS_GRID| Real space distribution along direction                              1
 RS_GRID| Border size                                                         41
 RS_GRID| Real space distribution over                                  6 groups
 RS_GRID| Real space distribution along direction                              2
 RS_GRID| Border size                                                         41
 RS_GRID| Real space distribution over                                  8 groups
 RS_GRID| Real space distribution along direction                              3
 RS_GRID| Border size                                                         41
 RS_GRID|   Distribution                         Average         Max         Min
 RS_GRID|   Planes                                 142.0         142         142
 RS_GRID|   Distribution                         Average         Max         Min
 RS_GRID|   Planes                                 122.0         122         122
 RS_GRID|   Distribution                         Average         Max         Min
 RS_GRID|   Planes                                 112.0         112         112

 RS_GRID| Information for grid number                                          3
 RS_GRID|   Bounds   1            -67      67                Points:         135
 RS_GRID|   Bounds   2            -67      67                Points:         135
 RS_GRID|   Bounds   3            -67      67                Points:         135
 RS_GRID| Real space fully replicated
 RS_GRID| Group size                                                           1

 RS_GRID| Information for grid number                                          4
 RS_GRID|   Bounds   1            -40      39                Points:          80
 RS_GRID|   Bounds   2            -40      39                Points:          80
 RS_GRID|   Bounds   3            -40      39                Points:          80
 RS_GRID| Real space fully replicated
 RS_GRID| Group size                                                           1

  HFX_INFO| Replica ID:                                                        1
  HFX_INFO| FRACTION:                                               0.2500000000
  HFX_INFO| Interaction Potential:                                       COULOMB
  HFX_INFO| EPS_SCHWARZ:                                                 1.0E-10
  HFX_INFO| EPS_SCHWARZ_FORCES                                           1.0E-08
  HFX_INFO| EPS_STORAGE_SCALING:                                         1.0E+00
  HFX_INFO| NBINS:                                                            64
  HFX_INFO| BLOCK_SIZE:                                                        1
  HFX_INFO| Number of periodic shells considered:                           NONE
  HFX_INFO| Number of periodic cells considered:                            NONE


 OVERLAP MATRIX CONDITION NUMBER
 1-Norm Condition Number (Estimate)
   CN : |A|*|A^-1|:  4.953E+001 *  1.917E+005   = 9.496E+006  Log(1-CN):  6.9775
 1-Norm and 2-Norm Condition Numbers using Diagonalization
   CN : |A|*|A^-1|:  4.953E+001 *  1.910E+005   = 9.461E+006  Log(1-CN):  6.9759
   CN : max/min ev:  1.755E+001 /  2.304E-005   = 7.615E+005  Log(2-CN):  5.8817

 Extrapolation method: initial_guess

 Atomic guess: The first density matrix is obtained in terms of atomic orbitals
               and electronic configurations assigned to each atomic kind

 Guess for atomic kind: O

 Electronic structure
    Total number of core electrons                                          0.00
    Total number of valence electrons                                       8.00
    Total number of electrons                                               8.00
    Multiplicity                                                   not specified
    S      2.00  2.00
    P      4.00


 *******************************************************************************
                  Iteration          Convergence                     Energy [au]
 *******************************************************************************
                          1        0.849670                     -74.335674168869
                          2        0.869389                     -74.324859694107
                          3        0.697432E-01                 -74.439224088863
                          4        0.175161E-02                 -74.439997666440
                          5        0.192648E-03                 -74.439998082258
                          6        0.198994E-05                 -74.439998087622
                          7        0.205802E-05                 -74.439998087622
                          8        0.520855E-08                 -74.439998087622

 Energy components [Hartree]           Total Energy ::          -74.439998087622
                                        Band Energy ::          -40.680979348956
                                     Kinetic Energy ::           74.005891336564
                                   Potential Energy ::         -148.445889424186
                                      Virial (-V/T) ::            2.005865840452
                                        Core Energy ::         -102.914102294567
                                          XC Energy ::           -7.750574740974
                                     Coulomb Energy ::           36.224678947918

 Orbital energies  State     L     Occupation   Energy[a.u.]          Energy[eV]

                       1     0          2.000     -18.778735         -510.995367
                       2     0          2.000      -0.871403          -23.712092

                       1     1          4.000      -0.345176           -9.392706


 Total Electron Density at R=0:                                       296.644588

 Guess for atomic kind: H

 Electronic structure
    Total number of core electrons                                          0.00
    Total number of valence electrons                                       1.00
    Total number of electrons                                               1.00
    Multiplicity                                                   not specified
    S      1.00


 *******************************************************************************
                  Iteration          Convergence                     Energy [au]
 *******************************************************************************
                          1        0.733196E-02                  -0.445117623880
                          2        0.859241E-03                  -0.445212006904
                          3        0.845006E-04                  -0.445214656295
                          4        0.112741E-06                  -0.445214675972

 Energy components [Hartree]           Total Energy ::           -0.445214675972
                                        Band Energy ::           -0.233330933424
                                     Kinetic Energy ::            0.424855784484
                                   Potential Energy ::           -0.870070460456
                                      Virial (-V/T) ::            2.047919534654
                                        Core Energy ::           -0.495467353870
                                          XC Energy ::           -0.231971319510
                                     Coulomb Energy ::            0.282223997408

 Orbital energies  State     L     Occupation   Energy[a.u.]          Energy[eV]

                       1     0          1.000      -0.233331           -6.349258


 Total Electron Density at R=0:                                         0.248077

 Guess for atomic kind: N

 Electronic structure
    Total number of core electrons                                          0.00
    Total number of valence electrons                                       7.00
    Total number of electrons                                               7.00
    Multiplicity                                                   not specified
    S      2.00  2.00
    P      3.00


 *******************************************************************************
                  Iteration          Convergence                     Energy [au]
 *******************************************************************************
                          1        0.326076                     -53.972693897064
                          2        0.277784                     -53.975356210240
                          3        0.160682E-01                 -54.015017798370
                          4        0.471581E-03                 -54.015122641131
                          5        0.493838E-04                 -54.015122735628
                          6        0.172912E-06                 -54.015122736717

 Energy components [Hartree]           Total Energy ::          -54.015122736717
                                        Band Energy ::          -30.191862359396
                                     Kinetic Energy ::           53.695499289564
                                   Potential Energy ::         -107.710622026281
                                      Virial (-V/T) ::            2.005952518393
                                        Core Energy ::          -73.652199105609
                                          XC Energy ::           -6.133297426899
                                     Coulomb Energy ::           25.770373795791

 Orbital energies  State     L     Occupation   Energy[a.u.]          Energy[eV]

                       1     0          2.000     -14.018025         -381.449871
                       2     0          2.000      -0.677769          -18.443037

                       1     1          3.000      -0.266758           -7.258847


 Total Electron Density at R=0:                                       197.100878

 Guess for atomic kind: C

 Electronic structure
    Total number of core electrons                                          0.00
    Total number of valence electrons                                       6.00
    Total number of electrons                                               6.00
    Multiplicity                                                   not specified
    S      2.00  2.00
    P      2.00


 *******************************************************************************
                  Iteration          Convergence                     Energy [au]
 *******************************************************************************
                          1        0.408086E-01                 -37.383571338589
                          2        0.199264E-01                 -37.384203573320
                          3        0.259961E-02                 -37.384435836203
                          4        0.391371E-04                 -37.384439874383
                          5        0.433696E-05                 -37.384439875510
                          6        0.203636E-05                 -37.384439875519
                          7        0.125946E-05                 -37.384439875520
                          8        0.885025E-06                 -37.384439875521

 Energy components [Hartree]           Total Energy ::          -37.384439875521
                                        Band Energy ::          -20.876980269916
                                     Kinetic Energy ::           37.852147377771
                                   Potential Energy ::          -75.236587253292
                                      Virial (-V/T) ::            1.987643831733
                                        Core Energy ::          -50.615205923802
                                          XC Energy ::           -4.796518113706
                                     Coulomb Energy ::           18.027284161987

 Orbital energies  State     L     Occupation   Energy[a.u.]          Energy[eV]

                       1     0          2.000      -9.827795         -267.427905
                       2     0          2.000      -0.450543          -12.259887

                       1     1          2.000      -0.160152           -4.357971


 Total Electron Density at R=0:                                       119.599082
 Re-scaling the density matrix to get the right number of electrons
                  # Electrons              Trace(P)               Scaling factor
                           68                68.000                        1.000

 Number of electrons:                                                         68
 Number of occupied orbitals:                                                 34
 Number of molecular orbitals:                                               688

 Number of orbital functions:                                                688
 Number of independent orbital functions:                                    688


 SCF WAVEFUNCTION OPTIMIZATION

  Step     Update method      Time    Convergence         Total energy    Change
  ------------------------------------------------------------------------------

  HFX_MEM_INFO| Est. max. program size before HFX [MiB]:                     822
  HFX_MEM_INFO| Number of cart. primitive ERI's calculated:        6340725467575
  HFX_MEM_INFO| Number of sph. ERI's calculated:                     32256301952
  HFX_MEM_INFO| Number of sph. ERI's stored in-core:                 32256301952
  HFX_MEM_INFO| Number of sph. ERI's stored on disk:                           0
  HFX_MEM_INFO| Number of sph. ERI's calculated on the fly:                    0
  HFX_MEM_INFO| Total memory consumption ERI's RAM [MiB]:                 119493
  HFX_MEM_INFO| Whereof max-vals [MiB]:                                        6
  HFX_MEM_INFO| Total compression factor ERI's RAM:                         2.06
  HFX_MEM_INFO| Total memory consumption ERI's disk [MiB]:                     0
  HFX_MEM_INFO| Total compression factor ERI's disk:                        0.00
  HFX_MEM_INFO| Size of density/Fock matrix [MiB]:                             2
  HFX_MEM_INFO| Size of buffers [MiB]:                                       279
  HFX_MEM_INFO| Est. max. program size after HFX  [MiB]:                    2343

     1 NoMix/Diag. 0.10E+00  608.5     1.78895368      -456.6830041722 -4.57E+02
     2 Broy./Diag. 0.10E+00    2.2     0.43862422      -452.6106200861  4.07E+00
     3 Broy./Diag. 0.10E+00    1.5     0.22121538      -454.2336069076 -1.62E+00
     4 Broy./Diag. 0.10E+00    1.5     0.18958172      -453.9195539293  3.14E-01
     5 Broy./Diag. 0.10E+00    1.5     0.12572631      -455.0864469562 -1.17E+00
     6 Broy./Diag. 0.10E+00    1.4     0.02428762      -454.9945201233  9.19E-02
     7 Broy./Diag. 0.10E+00    1.5     0.07796117      -454.6462365373  3.48E-01
     8 Broy./Diag. 0.10E+00    1.5     0.06177363      -454.6647673696 -1.85E-02
     9 Broy./Diag. 0.10E+00    1.5     0.02291607      -454.5820934435  8.27E-02
    10 Broy./Diag. 0.10E+00    1.4     0.01194100      -454.8652264174 -2.83E-01
    11 Broy./Diag. 0.10E+00    1.5     0.01077547      -455.0553150785 -1.90E-01
    12 Broy./Diag. 0.10E+00    1.5     0.00881740      -454.9895973486  6.57E-02
    13 Broy./Diag. 0.10E+00    1.5     0.00907582      -454.9592523218  3.03E-02
    14 Broy./Diag. 0.10E+00    1.6     0.00320686      -454.9530396591  6.21E-03
    15 Broy./Diag. 0.10E+00    1.5     0.00726953      -454.9609283168 -7.89E-03
    16 Broy./Diag. 0.10E+00    1.5     0.01713766      -454.9610624166 -1.34E-04
    17 Broy./Diag. 0.10E+00    1.4     0.00130594      -454.9600174883  1.04E-03
    18 Broy./Diag. 0.10E+00    1.4     0.00554531      -454.9408273399  1.92E-02
    19 Broy./Diag. 0.10E+00    1.5     0.01336950      -454.9444674148 -3.64E-03
    20 Broy./Diag. 0.10E+00    1.5     0.00112912      -454.9413731219  3.09E-03
    21 Broy./Diag. 0.10E+00    1.5     0.00144821      -454.9446814391 -3.31E-03
    22 Broy./Diag. 0.10E+00    1.5     0.00204195      -454.9503773383 -5.70E-03
    23 Broy./Diag. 0.10E+00    1.5     0.00266848      -454.9500063281  3.71E-04
    24 Broy./Diag. 0.10E+00    1.5     0.00058125      -454.9479753114  2.03E-03
    25 Broy./Diag. 0.10E+00    1.5     0.00057459      -454.9499762102 -2.00E-03
    26 Broy./Diag. 0.10E+00    1.4     0.00097821      -454.9543892158 -4.41E-03
    27 Broy./Diag. 0.10E+00    1.5     0.00047532      -454.9551464109 -7.57E-04
    28 Broy./Diag. 0.10E+00    1.5     0.00085195      -454.9500307108  5.12E-03
    29 Broy./Diag. 0.10E+00    1.5     0.00072222      -454.9461362148  3.89E-03
    30 Broy./Diag. 0.10E+00    1.5     0.00016548      -454.9463843769 -2.48E-04
    31 Broy./Diag. 0.10E+00    1.5     0.00108289      -454.9470376186 -6.53E-04
    32 Broy./Diag. 0.10E+00    1.5     0.00103058      -454.9459514347  1.09E-03
    33 Broy./Diag. 0.10E+00    1.5     0.00018579      -454.9465318081 -5.80E-04
    34 Broy./Diag. 0.10E+00    1.5     0.00010960      -454.9463057252  2.26E-04
    35 Broy./Diag. 0.10E+00    1.5     0.00019791      -454.9458437995  4.62E-04
    36 Broy./Diag. 0.10E+00    1.5     0.00023759      -454.9459860468 -1.42E-04
    37 Broy./Diag. 0.10E+00    1.5     0.00046973      -454.9453609342  6.25E-04
    38 Broy./Diag. 0.10E+00    1.5     0.00033841      -454.9454239751 -6.30E-05
    39 Broy./Diag. 0.10E+00    1.5     0.00011537      -454.9457419316 -3.18E-04
    40 Broy./Diag. 0.10E+00    1.5     0.00015493      -454.9459033080 -1.61E-04
    41 Broy./Diag. 0.10E+00    1.6     0.00008405      -454.9459022443  1.06E-06
    42 Broy./Diag. 0.10E+00    1.5     0.00017450      -454.9459091556 -6.91E-06
    43 Broy./Diag. 0.10E+00    1.6     0.00014481      -454.9460507580 -1.42E-04
    44 Broy./Diag. 0.10E+00    1.5     0.00008261      -454.9462068384 -1.56E-04
    45 Broy./Diag. 0.10E+00    1.5     0.00008139      -454.9462717454 -6.49E-05
    46 Broy./Diag. 0.10E+00    1.5     0.00010507      -454.9461609985  1.11E-04
    47 Broy./Diag. 0.10E+00    1.5     0.00007183      -454.9460487958  1.12E-04
    48 Broy./Diag. 0.10E+00    1.5     0.00002594      -454.9460117639  3.70E-05
    49 Broy./Diag. 0.10E+00    1.5     0.00013521      -454.9460376781 -2.59E-05
    50 Broy./Diag. 0.10E+00    1.4     0.00006844      -454.9460869708 -4.93E-05
    51 Broy./Diag. 0.10E+00    1.5     0.00007804      -454.9461250737 -3.81E-05
    52 Broy./Diag. 0.10E+00    1.5     0.00005777      -454.9461688267 -4.38E-05
    53 Broy./Diag. 0.10E+00    1.5     0.00002456      -454.9461895057 -2.07E-05
    54 Broy./Diag. 0.10E+00    1.5     0.00000853      -454.9461775647  1.19E-05
    55 Broy./Diag. 0.10E+00    1.5     0.00000895      -454.9461706731  6.89E-06
    56 Broy./Diag. 0.10E+00    1.5     0.00002401      -454.9461700588  6.14E-07
    57 Broy./Diag. 0.10E+00    1.5     0.00000854      -454.9461646209  5.44E-06
    58 Broy./Diag. 0.10E+00    1.5     0.00001672      -454.9461627654  1.86E-06
    59 Broy./Diag. 0.10E+00    1.5     0.00002301      -454.9461642028 -1.44E-06
    60 Broy./Diag. 0.10E+00    1.5     0.00001397      -454.9461623602  1.84E-06
    61 Broy./Diag. 0.10E+00    1.5     0.00000761      -454.9461622431  1.17E-07
    62 Broy./Diag. 0.10E+00    1.5     0.00000388      -454.9461607222  1.52E-06
    63 Broy./Diag. 0.10E+00    1.5     0.00000316      -454.9461583241  2.40E-06
    64 Broy./Diag. 0.10E+00    1.5     0.00000861      -454.9461615724 -3.25E-06
    65 Broy./Diag. 0.10E+00    1.5     0.00000103      -454.9461629048 -1.33E-06
    66 Broy./Diag. 0.10E+00    1.4     0.00000238      -454.9461622104  6.94E-07
    67 Broy./Diag. 0.10E+00    1.5     0.00000130      -454.9461635695 -1.36E-06
    68 Broy./Diag. 0.10E+00    1.5     0.00000175      -454.9461639944 -4.25E-07
    69 Broy./Diag. 0.10E+00    1.5     0.00000277      -454.9461630426  9.52E-07
    70 Broy./Diag. 0.10E+00    1.5     0.00000373      -454.9461632654 -2.23E-07
    71 Broy./Diag. 0.10E+00    1.5     0.00000157      -454.9461638822 -6.17E-07
    72 Broy./Diag. 0.10E+00    1.5     0.00000125      -454.9461643634 -4.81E-07
    73 Broy./Diag. 0.10E+00    1.5     0.00000065      -454.9461649683 -6.05E-07

  *** SCF run converged in    73 steps ***


  Electronic density on regular grids:        -49.3499808794       18.6500191206
  Core density on regular grids:               68.0000000000       -0.0000000000
  Hard and soft densities (Lebedev):         -890.7873559448     -872.1373381526
  Total Rho_soft + Rho1_hard - Rho1_soft      -67.9999986717
  Total charge density (r-space):               0.0000013283
  Total Rho_soft + Rho0_soft (g-space):         0.0000013367

  Overlap energy of the core charge distribution:               0.00000792841108
  Self energy of the core charge distribution:               -398.26691870831746
  Core Hamiltonian energy:                                    -60.00144088221829
  Hartree energy:                                             131.41494251382923
  Exchange-correlation energy:                                -17.66298760554383
  Hartree-Fock Exchange energy:                               -14.59407006203945

  GAPW| Exc from hard and soft atomic rho1:                   -28.35204686324119
  GAPW| local Eh = 1 center integrals:                        -67.48365128916512

  Total energy:                                              -454.94616496828502

 !-----------------------------------------------------------------------------!
                     Mulliken Population Analysis

 #  Atom  Element  Kind  Atomic population                           Net charge
       1     O        1          9.126541                             -1.126541
       2     O        1          9.188277                             -1.188277
       3     H        2          0.772978                              0.227022
       4     N        3          6.845550                              0.154450
       5     C        4          5.269513                              0.730487
       6     C        4          5.257059                              0.742941
       7     N        3          6.990744                              0.009256
       8     H        2          0.700845                              0.299155
       9     C        4          6.132071                             -0.132071
      10     H        2          0.947509                              0.052491
      11     C        4          6.040125                             -0.040125
      12     H        2          0.963318                              0.036682
      13     H        2          0.961629                              0.038371
      14     C        4          5.959485                              0.040515
      15     H        2          0.953714                              0.046286
      16     H        2          0.919085                              0.080915
      17     H        2          0.971556                              0.028444
 # Total charge                             68.000000                  0.000000

 !-----------------------------------------------------------------------------!

 !-----------------------------------------------------------------------------!
                           Hirshfeld Charges

  #Atom  Element  Kind  Ref Charge     Population                    Net charge
      1       O      1       8.000          8.454                        -0.454
      2       O      1       8.000          8.454                        -0.454
      3       H      2       1.000          0.439                         0.561
      4       N      3       7.000          7.623                        -0.623
      5       C      4       6.000          5.655                         0.345
      6       C      4       6.000          5.655                         0.345
      7       N      3       7.000          7.629                        -0.629
      8       H      2       1.000          0.440                         0.560
      9       C      4       6.000          6.330                        -0.330
     10       H      2       1.000          0.525                         0.475
     11       C      4       6.000          6.792                        -0.792
     12       H      2       1.000          0.521                         0.479
     13       H      2       1.000          0.516                         0.484
     14       C      4       6.000          7.411                        -1.411
     15       H      2       1.000          0.513                         0.487
     16       H      2       1.000          0.513                         0.487
     17       H      2       1.000          0.512                         0.488

  Total Charge                                                            0.018
 !-----------------------------------------------------------------------------!
  
 -------------------------------------------------------------------------------
 -                                                                             -
 -                          BANDSTRUCTURE CALCULATION                          -
 -                                                                             -
 -------------------------------------------------------------------------------
  
 Number of occupied molecular orbitals (MOs) = Number of occupied bands       34
 Number of unoccupied (= virtual) MOs = Number of unoccupied bands           654
 Number of Gaussian basis functions for MOs                                  688
 K-point mesh for the density of states (DOS) and the self-energy      1   1   1
  
 -------------------------------------------------------------------------------
 -                                                                             -
 -                                GW CALCULATION                               -
 -                                                                             -
 -------------------------------------------------------------------------------
  
 Input: Number of time/freq. points                                           30
 Input: ω_max for fitting Σ(iω) (eV)                                        10.0
 Input: Filter threshold for sparse tensor operations                    1.0E-11
 Input: Apply Hedin shift                                                      F
  
 Number of auxiliary Gaussian basis functions for χ, ε, W                   1130
 Cutoff radius for the truncated Coulomb operator in Σ^x:               2645.9 Å
 Cutoff radius for the truncated Coulomb operator in RI metric:            5.0 Å
 Regularization parameter of RI                                          1.0E-02
 Regularization parameter of minimax grids                               1.0E-06
 Lattice sum size for V(k):                                                    3
  
 K-point mesh 1 for χ, ε, W                                            1   1   1
 K-point mesh 2 for χ, ε, W (for k-point extrapolation of W)           1   1   1
 Approximate the k-point extrapolation                                         F
 Group size for tensor operations                                            192
 
 Computed 3-center integrals (µν|P), execution time                        1.5 s
 Percentage of non-zero (µν|P)                                         100.000 %
 Max. distance between µ,ν in non-zero (µν|P)                              6.2 A
 Required memory if storing all 3-center integrals (µν|P)                   4 GB
 
 Number of i and j atoms in M_λνP(τ), N_νλQ(τ):                               60
 Number of inner loop atoms for µ in M_λνP = sum_µ (µν|P) G_µλ                17
 
 SCF direct band gap (eV)                                                   6.07
 Max. SCF eigval diff. (eV)                                             10480.14
 E-Range for minimax grid                                                1725.92
 Number of Padé parameters for analytic continuation:                          5
 
 Computed χ(iτ,k=0) for time point            1 / 30,    Execution time    1.7 s
 Computed χ(iτ,k=0) for time point            2 / 30,    Execution time    1.6 s
 Computed χ(iτ,k=0) for time point            3 / 30,    Execution time    1.5 s
 Computed χ(iτ,k=0) for time point            4 / 30,    Execution time    1.5 s
 Computed χ(iτ,k=0) for time point            5 / 30,    Execution time    1.5 s
 Computed χ(iτ,k=0) for time point            6 / 30,    Execution time    1.6 s
 Computed χ(iτ,k=0) for time point            7 / 30,    Execution time    1.5 s
 Computed χ(iτ,k=0) for time point            8 / 30,    Execution time    1.5 s
 Computed χ(iτ,k=0) for time point            9 / 30,    Execution time    1.6 s
 Computed χ(iτ,k=0) for time point           10 / 30,    Execution time    1.5 s
 Computed χ(iτ,k=0) for time point           11 / 30,    Execution time    1.5 s
 Computed χ(iτ,k=0) for time point           12 / 30,    Execution time    1.6 s
 Computed χ(iτ,k=0) for time point           13 / 30,    Execution time    1.5 s
 Computed χ(iτ,k=0) for time point           14 / 30,    Execution time    1.5 s
 Computed χ(iτ,k=0) for time point           15 / 30,    Execution time    1.5 s
 Computed χ(iτ,k=0) for time point           16 / 30,    Execution time    1.5 s
 Computed χ(iτ,k=0) for time point           17 / 30,    Execution time    1.5 s
 Computed χ(iτ,k=0) for time point           18 / 30,    Execution time    1.6 s
 Computed χ(iτ,k=0) for time point           19 / 30,    Execution time    1.6 s
 Computed χ(iτ,k=0) for time point           20 / 30,    Execution time    1.6 s
 Computed χ(iτ,k=0) for time point           21 / 30,    Execution time    1.5 s
 Computed χ(iτ,k=0) for time point           22 / 30,    Execution time    1.5 s
 Computed χ(iτ,k=0) for time point           23 / 30,    Execution time    1.5 s
 Computed χ(iτ,k=0) for time point           24 / 30,    Execution time    1.5 s
 Computed χ(iτ,k=0) for time point           25 / 30,    Execution time    1.6 s
 Computed χ(iτ,k=0) for time point           26 / 30,    Execution time    1.6 s
 Computed χ(iτ,k=0) for time point           27 / 30,    Execution time    1.5 s
 Computed χ(iτ,k=0) for time point           28 / 30,    Execution time    1.5 s
 Computed χ(iτ,k=0) for time point           29 / 30,    Execution time    1.5 s
 Computed χ(iτ,k=0) for time point           30 / 30,    Execution time    1.5 s
 
 Computed W(iτ,k) for k-point batch           1 /  1,    Execution time    6.4 s
 
 Computed Σ^x(k=0),                                      Execution time    1.8 s
 
 Computed Σ^c(iτ,k=0) for time point          1 / 30,    Execution time    2.4 s
 Computed Σ^c(iτ,k=0) for time point          2 / 30,    Execution time    2.5 s
 Computed Σ^c(iτ,k=0) for time point          3 / 30,    Execution time    2.4 s
 Computed Σ^c(iτ,k=0) for time point          4 / 30,    Execution time    2.4 s
 Computed Σ^c(iτ,k=0) for time point          5 / 30,    Execution time    2.4 s
 Computed Σ^c(iτ,k=0) for time point          6 / 30,    Execution time    2.5 s
 Computed Σ^c(iτ,k=0) for time point          7 / 30,    Execution time    2.4 s
 Computed Σ^c(iτ,k=0) for time point          8 / 30,    Execution time    2.4 s
 Computed Σ^c(iτ,k=0) for time point          9 / 30,    Execution time    2.4 s
 Computed Σ^c(iτ,k=0) for time point         10 / 30,    Execution time    2.5 s
 Computed Σ^c(iτ,k=0) for time point         11 / 30,    Execution time    2.4 s
 Computed Σ^c(iτ,k=0) for time point         12 / 30,    Execution time    2.4 s
 Computed Σ^c(iτ,k=0) for time point         13 / 30,    Execution time    2.4 s
 Computed Σ^c(iτ,k=0) for time point         14 / 30,    Execution time    2.5 s
 Computed Σ^c(iτ,k=0) for time point         15 / 30,    Execution time    2.4 s
 Computed Σ^c(iτ,k=0) for time point         16 / 30,    Execution time    2.4 s
 Computed Σ^c(iτ,k=0) for time point         17 / 30,    Execution time    2.4 s
 Computed Σ^c(iτ,k=0) for time point         18 / 30,    Execution time    2.6 s
 Computed Σ^c(iτ,k=0) for time point         19 / 30,    Execution time    2.5 s
 Computed Σ^c(iτ,k=0) for time point         20 / 30,    Execution time    2.5 s
 Computed Σ^c(iτ,k=0) for time point         21 / 30,    Execution time    2.4 s
 Computed Σ^c(iτ,k=0) for time point         22 / 30,    Execution time    2.5 s
 Computed Σ^c(iτ,k=0) for time point         23 / 30,    Execution time    2.5 s
 Computed Σ^c(iτ,k=0) for time point         24 / 30,    Execution time    2.5 s
 Computed Σ^c(iτ,k=0) for time point         25 / 30,    Execution time    2.4 s
 Computed Σ^c(iτ,k=0) for time point         26 / 30,    Execution time    2.5 s
 Computed Σ^c(iτ,k=0) for time point         27 / 30,    Execution time    2.5 s
 Computed Σ^c(iτ,k=0) for time point         28 / 30,    Execution time    2.4 s
 Computed Σ^c(iτ,k=0) for time point         29 / 30,    Execution time    2.4 s
 Computed Σ^c(iτ,k=0) for time point         30 / 30,    Execution time    2.5 s
 
 Sparsity of Σ^c(iτ,k=0): Percentage of skipped atom pairs:                0.0 %

 
 SCF valence band maximum (eV):                                           -7.352
 SCF conduction band minimum (eV):                                        -1.279
 SCF indirect band gap (eV):                                               6.072
 SCF direct band gap (eV):                                                 6.072
 
 G0W0 valence band maximum (eV):                                          -9.264
 G0W0 conduction band minimum (eV):                                        0.273
 G0W0 indirect band gap (eV):                                              9.537
 G0W0 direct band gap (eV):                                                9.537
 
 Hartree-Fock with SCF orbitals valence band maximum (eV):               -10.670
 Hartree-Fock with SCF orbitals conduction band minimum (eV)               1.028
 Hartree-Fock with SCF orbitals indirect band gap (eV):                   11.697
 Hartree-Fock with SCF orbitals direct band gap (eV):                     11.697

 ENERGY| Total FORCE_EVAL ( QS ) energy [hartree]           -454.946164968285018

 -------------------------------------------------------------------------------
 -                                                                             -
 -                                DBCSR STATISTICS                             -
 -                                                                             -
 -------------------------------------------------------------------------------
 COUNTER                                    TOTAL       BLAS       SMM       ACC
 flops    23 x    23 x    16             44486784     100.0%      0.0%      0.0%     
 flops    23 x    56 x    16            108315648     100.0%      0.0%      0.0%     
 flops    56 x    23 x    16            108315648     100.0%      0.0%      0.0%     
 flops    56 x    56 x    16            329656320     100.0%      0.0%      0.0%     
 flops    23 x    23 x    32           1868444928     100.0%      0.0%      0.0%     
 flops    23 x    56 x    32           4549257216     100.0%      0.0%      0.0%     
 flops    56 x    23 x    32           4549257216     100.0%      0.0%      0.0%     
 flops    56 x    56 x    32          13845565440     100.0%      0.0%      0.0%     
 flops inhomo. stacks                           0       0.0%      0.0%      0.0%
 flops total                        25.403299E+09     100.0%      0.0%      0.0%
 flops max/rank                    759.386880E+06     100.0%      0.0%      0.0%
 matmuls inhomo. stacks                         0       0.0%      0.0%      0.0%
 matmuls total                             245718     100.0%      0.0%      0.0%
 number of processed stacks                232870     100.0%      0.0%      0.0%
 average stack size                                     1.1       0.0       0.0
 marketing flops                     2.349680E+09
 -------------------------------------------------------------------------------
 # multiplications                             73
 max memory usage/rank              20.222534E+09
 # max total images/rank                        3
 # max 3D layers                                1
 # MPI messages exchanged                  616704
 MPI messages size (bytes):
  total size                         8.292987E+09
  min size                           0.000000E+00
  max size                          43.008000E+03
  average size                      13.447272E+03
 MPI breakdown and total messages size (bytes):
             size <=      128              167024                        0
       128 < size <=     8192               97893                570245632
      8192 < size <=    32768              281269               4987771136
     32768 < size <=   131072               70518               2734970112
    131072 < size <=  4194304                   0                        0
   4194304 < size <= 16777216                   0                        0
  16777216 < size                               0                        0
 -------------------------------------------------------------------------------

 *** WARNING in dbcsr_mm.F:301 :: Using a non-square number of MPI ranks ***
 *** might lead to poor performance. Used ranks: 192 Suggested: 196 400  ***

 -------------------------------------------------------------------------------
 -                                                                             -
 -                      DBCSR MESSAGE PASSING PERFORMANCE                      -
 -                                                                             -
 -------------------------------------------------------------------------------
 ROUTINE             CALLS      AVE VOLUME [Bytes]
 MP_Bcast                9                     12.
 MP_Allreduce          474                      9.
 MP_Alltoall          5466                 116681.
 MP_ISend             7008                  11159.
 MP_IRecv             7008                  10513.
 -------------------------------------------------------------------------------

 -------------------------------------------------------------------------------
 -                                                                             -
 -                                DBM STATISTICS                               -
 -                                                                             -
 -------------------------------------------------------------------------------
    M  x    N  x    K                                          COUNT     PERCENT
    ?  x    ?  x    ?                                         107350      47.55%
 >999  x   ??  x   ??                                          49368      21.87%
   ??  x   ??  x >999                                          20476       9.07%
  ???  x   ??  x   ??                                          16456       7.29%
   ??  x   ??  x  ???                                          11048       4.89%
   ??  x >999  x   ??                                           6045       2.68%
   ??  x  ???  x   ??                                           2418       1.07%
  ???  x >999  x   ??                                           2015       0.89%
   ??  x >999  x  ???                                           1860       0.82%
   ??  x  ???  x  ???                                           1824       0.81%
   ??  x  ???  x >999                                           1620       0.72%
  ???  x   ??  x >999                                           1620       0.72%
  ???  x   ??  x  ???                                           1080       0.48%
  ???  x  ???  x   ??                                            806       0.36%
  ???  x >999  x  ???                                            620       0.27%
  ???  x  ???  x  ???                                            608       0.27%
  ???  x  ???  x >999                                            540       0.24%
 -------------------------------------------------------------------------------

 -------------------------------------------------------------------------------
 -                                                                             -
 -                                GRID STATISTICS                              -
 -                                                                             -
 -------------------------------------------------------------------------------
 LP    KERNEL             BACKEND                              COUNT     PERCENT
 8     collocate ortho    CPU                                  10730      28.74%
 8     integrate ortho    CPU                                  10730      28.74%
 6     collocate ortho    CPU                                   6586      17.64%
 6     integrate ortho    CPU                                   6586      17.64%
 2     collocate general  CPU                                   1258       3.37%
 2     integrate general  CPU                                   1258       3.37%
 4     collocate ortho    CPU                                     74       0.20%
 4     integrate ortho    CPU                                     74       0.20%
 0     collocate general  CPU                                     17       0.05%
 0     integrate general  CPU                                     17       0.05%
 -------------------------------------------------------------------------------

 -------------------------------------------------------------------------------
 -                                                                             -
 -                          OFFLOAD MEMPOOL STATISTICS                         -
 -                                                                             -
 -------------------------------------------------------------------------------
 Memory consumption                Number of allocations  Used [MiB]  Size [MiB]
 Host                                                156         284         481
 -------------------------------------------------------------------------------

 MEMORY| Estimated peak process memory [MiB]                                3295

 -------------------------------------------------------------------------------
 ----                             MULTIGRID INFO                            ----
 -------------------------------------------------------------------------------
 count for grid        1:       81769413          cutoff [a.u.]          250.00
 count for grid        2:       16255042          cutoff [a.u.]           83.33
 count for grid        3:       11539171          cutoff [a.u.]           27.78
 count for grid        4:        5828059          cutoff [a.u.]            9.26
 total gridlevel count  :      115391685

 -------------------------------------------------------------------------------
 -                                                                             -
 -                         MESSAGE PASSING PERFORMANCE                         -
 -                                                                             -
 -------------------------------------------------------------------------------

 ROUTINE             CALLS      AVE VOLUME [Bytes]
 MP_Group             2965
 MP_Bcast            11531                 125816.
 MP_Allreduce        40664                  26079.
 MP_Sync              3896
 MP_Alltoall          4217                7349926.
 MP_SendRecv         28268                  69520.
 MP_ISendRecv        56918                  64591.
 MP_Wait             86312
 MP_comm_split        1699
 MP_ISend            32659                 477180.
 MP_IRecv            34741                 450237.
 -------------------------------------------------------------------------------


 -------------------------------------------------------------------------------
 -                                                                             -
 -                           R E F E R E N C E S                               -
 -                                                                             -
 -------------------------------------------------------------------------------
 
 CP2K version 2025.2 (Development Version), the CP2K developers group (2025).
 CP2K is freely available from https://www.cp2k.org/ .
 
 M. Graml, K. Zollner, D. Hernangómez-Pérez, P. E. Faria Junior, J. Wilhelm.
 J. Chem. Theory Comput. 20, 2202-2208 (2024).
 Low-scaling GW algorithm applied to twisted transition-metal dichalcogenide 
 heterobilayers.
 https://doi.org/10.1021/acs.jctc.3c01230

 T. D. Kuehne, M. Iannuzzi, M. Del Ben, V. V. Rybkin, P. Seewald, F. Stein, T. 
 Laino, R. Z. Khaliullin, O. Schuett, F. Schiffmann, D. Golze, J. Wilhelm, S. 
 Chulkov, M. H. Bani-Hashemian, V. Weber, U. Borstnik, M. Taillefumier, A. S. 
 Jakobovits, A. Lazzaro, H. Pabst, T. Mueller, R. Schade, M. Guidon, S. 
 Andermatt, N. Holmberg, G. K. Schenter, A. Hehn, A. Bussy, F. Belleflamme, G. 
 Tabacchi, A. Gloess, M. Lass, I. Bethune, C. J. Mundy, C. Plessl, M. Watkins, 
 J. VandeVondele, M. Krack, J. Hutter.
 J. Chem. Phys. 152, 194103 (2020).
 CP2K: An electronic structure and molecular dynamics software package - 
 Quickstep: Efficient and accurate electronic structure calculations.
 https://doi.org/10.1063/5.0007045

 O. Schuett, P. Messmer, J. Hutter, J. VandeVondele.
 Electronic Structure Calculations on Graphics Processing Units, 173-190 (2016).
 GPU-Accelerated Sparse Matrix-Matrix Multiplication for Linear Scaling Density 
 Functional Theory.
 https://doi.org/10.1002/9781118670712.ch8

 A. Heinecke, G. Henry, M. Hutchinson, H. Pabst.
 Proceedings of Intl. Supercomputing Conference, 981-991 (2016).
 LIBXSMM: Accelerating Small Matrix Multiplications by Runtime Code Generation.
 https://doi.org/10.1109/SC.2016.83

 J. Hutter, M. Iannuzzi, F. Schiffmann, J. VandeVondele.
 WIREs Comput Mol Sci. 4, 15-25 (2014).
 CP2K: atomistic simulations of condensed matter systems.
 https://doi.org/10.1002/wcms.1159

 U. Borstnik, J. VandeVondele, V. Weber, J. Hutter.
 Parallel Comput. 40, 47-58 (2014).
 Sparse matrix multiplication: The distributed block-compressed sparse row 
 library.
 https://doi.org/10.1016/j.parco.2014.03.012

 A. Marek, V. Blum, R. Johanni, V. Havu, B. Lang, T. Auckenthaler, A. Heinecke, 
 H. Bungartz, H. Lederer.
 J. Phys. Condens. Matter 26, 213201 (2014).
 The ELPA library: scalable parallel eigenvalue solutions for electronic 
 structure theory and computational science.
 https://doi.org/10.1088/0953-8984/26/21/213201

 M. Guidon, J. Hutter, J. VandeVondele.
 J. Chem. Theory Comput. 5, 3010-3021 (2009).
 Robust Periodic Hartree-Fock Exchange for Large-Scale Simulations Using 
 Gaussian Basis Sets.
 https://doi.org/10.1021/ct900494g

 M. Guidon, F. Schiffmann, J. Hutter, J. VandeVondele.
 J. Chem. Phys. 128, 214104 (2008).
 Ab initio molecular dynamics using hybrid density functionals.
 https://doi.org/10.1063/1.2931945

 L. Genovese, T. Deutsch, S. Goedecker.
 J. Chem. Phys. 127, 054704 (2007).
 Efficient and accurate three-dimensional Poisson solver for surface problems.
 https://doi.org/10.1063/1.2754685

 J. VandeVondele, J. Hutter.
 J. Chem. Phys. 127, 114105 (2007).
 Gaussian basis sets for accurate calculations on molecular systems in gas and 
 condensed phases.
 https://doi.org/10.1063/1.2770708

 L. Genovese, T. Deutsch, A. Neelov, S. Goedecker, G. Beylkin.
 J. Chem. Phys. 125, 074105 (2006).
 Efficient solution of Poisson's equation with free boundary conditions.
 https://doi.org/10.1063/1.2335442

 M. Frigo, S. G. Johnson.
 Proc. IEEE 93, 216-231 (2005).
 The design and implementation of FFTW3.
 https://doi.org/10.1109/JPROC.2004.840301

 M. Krack, M. Parrinello.
 Phys. Chem. Chem. Phys. 2, 2105-2112 (2000).
 All-electron ab-initio molecular dynamics.
 https://doi.org/10.1039/b001167n

 G. Lippert, J. Hutter, M. Parrinello.
 Theor. Chem. Acc. 103, 124-140 (1999).
 The Gaussian and augmented-plane-wave density functional method for ab initio 
 molecular dynamics simulations.
 https://doi.org/10.1007/s002140050523

 J. P. Perdew, K. Burke, M. Ernzerhof.
 Phys. Rev. Lett. 77, 3865-3868 (1996).
 Generalized gradient approximation made simple.
 https://doi.org/10.1103/PhysRevLett.77.3865


 -------------------------------------------------------------------------------
 -                                                                             -
 -                                T I M I N G                                  -
 -                                                                             -
 -------------------------------------------------------------------------------
 SUBROUTINE                       CALLS  ASD         SELF TIME        TOTAL TIME
                                MAXIMUM       AVERAGE  MAXIMUM  AVERAGE  MAXIMUM
 CP2K                                 1  1.0    0.011    0.026  852.747  852.790
 qs_energies                          1  2.0    0.000    0.001  852.396  852.439
 scf_env_do_scf                       1  3.0    0.000    0.000  715.908  715.944
 scf_env_do_scf_inner_loop           73  4.0    0.001    0.004  715.908  715.944
 qs_ks_build_kohn_sham_matrix        74  7.0    0.010    0.012  697.074  697.156
 qs_ks_update_qs_env                 73  5.0    0.001    0.001  696.039  696.120
 rebuild_ks_matrix                   73  6.0    0.000    0.000  696.033  696.114
 hfx_ks_matrix                       74  8.0    0.001    0.001  626.366  626.406
 integrate_four_center               74  9.0    4.379    5.571  626.362  626.399
 integrate_four_center_main          74 10.0    1.680    7.065  454.018  572.417
 integrate_four_center_bin        15014 11.0  452.338  572.008  452.338  572.008
 mp_sync                           3896 12.1  150.727  278.564  150.727  278.564
 qs_energies_properties               1  3.0    0.000    0.000  132.813  132.821
 post_scf_bandstructure               1  4.0    0.000    0.000  132.813  132.821
 gw                                   1  5.0    0.000    0.000  132.597  132.604
 gw_calc_large_cell_Gamma             1  6.0    0.000    0.000  129.643  129.654
 get_Sigma_c                          1  7.0    0.001    0.001   73.632   73.635
 dbt_total                          699  9.0    0.004    0.005   61.968   61.972
 compute_3c_integrals               152  8.6    0.003    0.003   58.637   58.641
 dbt_contract                       243  9.9    0.009    0.019   57.062   57.073
 dbt_tas_multiply                   486 12.4    0.001    0.001   56.230   56.234
 dbt_tas_total                      486 13.4    0.063    0.081   56.220   56.223
 build_3c_integrals                 157  9.6   32.813   47.413   39.239   53.037
 contract_to_Sigma                   61  8.0    0.001    0.001   46.419   46.421
 get_mat_chi_Gamma_tau                1  7.0    0.001    0.001   46.351   46.365
 calc_screening_functions             1 10.0   44.473   45.282   44.918   45.733
 compute_3c_and_contract_W           31  8.0    0.000    0.000   27.447   27.449
 dbt_tas_dbm                        486 14.4    0.001    0.001   27.416   27.423
 fft_wrap_pw1pw2                   1545 10.0    0.016    0.022   25.821   26.538
 pw_poisson_solve                    74  8.0    0.119    0.194   26.201   26.218
 dbm_multiply                       486 16.4   21.041   25.446   21.041   25.446
 fft_wrap_pw1pw2_250               1101 11.1    0.427    0.514   24.347   25.216
 fft3d_ps                          1545 12.0    2.853    4.168   24.292   25.028
 mp_alltoall_z22v                  1545 14.0   20.387   21.161   20.387   21.161
 abc_contract_xsmm                95745 10.6    5.742   17.231    5.742   17.231
 qs_rho_update_rho_low               74  5.0    0.001    0.001   14.558   14.560
 prepare_gapw_den                    74  8.0    0.001    0.001   14.190   14.313
 calculate_rho_elec                  74  6.0    0.050    0.075   13.529   13.532
 dbm_redistribute                   912 14.1   10.615   13.490   10.615   13.490
 dbt_tas_mm_2                       182 15.2    0.001    0.001   12.334   12.335
 qs_vxc_create                       74  8.0    0.001    0.002   11.739   11.985
 xc_vxc_pw_create                    73  9.0    0.076    0.111   11.738   11.983
 x_to_yz                            660 12.9    0.325    0.529   10.823   11.236
 yz_to_x                            589 13.2    0.224    0.303   10.067   10.716
 ps_wavelet_solve                    74  9.0    2.066    2.893   10.458   10.607
 G_times_3c                          60  8.0    0.001    0.004   10.583   10.586
 mp_alltoall_d11v                  2810 10.6    9.654   10.503    9.654   10.503
 convert_to_new_pgrid              1458 14.4    2.174    3.695    8.954   10.328
 mp_sum_dv                        20982  8.7    9.864   10.189    9.864   10.189
 calculate_rho_atom                 296  9.0    0.884   10.162    0.884   10.162
 xc_pw_derive                       438 11.0    0.002    0.003    9.335    9.563
 density_rs2pw                       74  7.0    0.002    0.003    8.691    9.549
 mp_sum_d                         11966  6.9    6.630    7.571    6.630    7.571
 mp_waitany                       24676 11.5    6.076    7.558    6.076    7.558
 sum_up_and_integrate                74  8.0    0.001    0.001    6.969    7.352
 integrate_v_rspace                  74  9.0    0.002    0.002    6.939    7.323
 dbt_tas_mm_3N                       62 15.5    0.000    0.000    6.292    7.262
 get_W_MIC                            1  7.0    0.000    0.000    7.106    7.107
 compute_W_MIC                        1  8.0    0.000    0.000    7.106    7.107
 potential_pw2rs                     74 10.0    0.006    0.007    6.526    6.557
 transfer_pw2rs                     371 10.6    0.003    0.004    5.842    6.380
 mp_alltoall_d54                     74 10.0    4.623    6.365    4.623    6.365
 compute_fm_W_MIC_freq_j             30  9.0    0.000    0.000    6.328    6.329
 mp_alltoall_d45                     75 10.0    5.731    6.173    5.731    6.173
 xc_pw_divergence                    73 10.0    0.001    0.001    5.956    6.083
 transfer_rs2pw                     371  8.4    0.006    0.010    5.054    5.889
 xc_rho_set_and_dset_create          73 10.0    0.079    0.106    5.479    5.721
 grid_collocate_task_list            74  7.0    4.580    5.250    4.580    5.250
 cp_cfm_power                        30 10.0    0.001    0.001    5.176    5.200
 cp_cfm_heevd                        32 10.8    0.000    0.000    5.162    5.172
 cp_cfm_heevd_base                   32 11.8    5.162    5.172    5.162    5.172
 mp_sum_l                          3075 13.8    2.926    4.854    2.926    4.854
 dbt_tas_create_split              1618 15.2    0.004    0.005    3.897    4.596
 dbt_tas_create_split_rows_or_c    1618 16.2    0.005    0.006    3.892    4.591
 dbt_copy                           456 10.1    0.007    0.015    3.599    4.447
 calculate_vxc_atom                  74  8.0    0.026    0.208    4.431    4.432
 transfer_pw2rs_250                 149 11.0    0.692    0.890    3.180    4.402
 reshape_mm_compatible              486 14.4    0.009    0.011    4.026    4.209
 integrate_vhg0_rspace               74  8.0    0.274    0.358    3.776    4.204
 dbt_tas_copy                       486 13.8    1.905    2.641    3.139    4.187
 change_split                       729 14.9    0.004    0.007    3.995    4.178
 gaVxcgb_GC                         146  9.0    0.102    4.170    0.102    4.170
 dbt_tas_mm_3T                      122 15.5    0.000    0.000    2.878    3.888
 dbt_tas_mm_1N                      120 15.5    0.000    0.000    2.829    3.823
 transfer_rs2pw_250                 149 10.0    0.799    0.939    2.942    3.782
 put_rho0_on_grid                    74  9.0    0.054    0.084    3.550    3.673
 dbm_reserve_blocks                2921 15.9    2.447    3.663    2.447    3.663
 dbt_tas_reserve_blocks_index      2435 15.0    0.004    0.005    2.439    3.657
 gspace_mixing                       72  5.0    0.049    0.074    3.521    3.522
 qs_scf_new_mos                      73  5.0    0.001    0.001    3.389    3.421
 dbt_tas_reshape                    638 14.5    0.008    0.009    2.586    3.063
 eigensolver_symm                    73  6.0    0.005    0.007    3.003    3.015
 mp_sum_dm                         3846  7.7    2.751    2.984    2.751    2.984
 create_and_init_bs_env_for_gw        1  6.0    0.000    0.000    2.954    2.969
 dbt_tas_estimate_result_nze        243 12.9    0.565    0.716    2.925    2.925
 cp_fm_diag_elpa                     79  7.1    0.000    0.000    2.915    2.923
 dbt_reshape                        274 10.9    1.273    1.630    2.268    2.737
 cp_fm_redistribute_end              79  8.1    1.390    2.692    1.414    2.711
 dbt_tas_distribution_new          1774 14.6    0.910    0.966    2.548    2.700
 mp_waitall_1                     70143 12.0    1.779    2.676    1.779    2.676
 cp_fm_diag_elpa_base                79  8.1    1.203    2.416    1.237    2.528
 transfer_pw2rs_90                   74 12.0    0.174    0.246    1.940    2.395
 mp_waitall_2                      2978 16.0    1.725    2.252    1.725    2.252
 pw_poisson_rebuild                  74  9.0    0.000    0.000    2.094    2.166
 ps_wavelet_create                    1 10.0    0.000    0.000    2.094    2.166
 RS_z_slice_distribution              1 11.0    0.103    0.112    2.094    2.166
 dbt_tas_reserve_blocks_templat     972 14.4    0.003    0.007    1.239    2.163
 reshape_mm_small                   486 14.4    0.028    0.030    1.953    2.118
 init_scf_run                         1  3.0    0.000    0.000    1.963    1.963
 broyden_mixing                      72  6.0    1.781    1.860    1.848    1.916
 mp_comm_dup                       1379 17.6    1.154    1.853    1.154    1.854
 get_Sigma_x                          1  7.0    0.000    0.000    1.800    1.800
 compute_Sigma_x                      1  8.0    0.000    0.000    1.800    1.800
 integrate_four_center_load          74 10.0    0.000    0.000    0.845    1.779
 hfx_load_balance                     1 11.0    0.000    0.000    0.845    1.779
 hfx_load_balance_range               1 12.0    0.000    0.000    0.831    1.765
 mp_bcast_i                        2211 13.1    1.762    1.765    1.762    1.765
 scf_env_initial_rho_setup            1  4.0    0.000    0.000    1.665    1.691
 qs_energies_init_hamiltonians        1  3.0    0.000    0.000    1.668    1.669
 build_core_hamiltonian_matrix        1  4.0    0.000    0.000    1.648    1.648
 overlap_condnum                      1  5.0    0.000    0.000    1.639    1.647
 parallel_gemm_cfm                  283 10.4    0.000    0.000    1.547    1.580
 parallel_gemm_cfm_cosma            283 11.4    1.546    1.579    1.546    1.579
 parallel_gemm_fm_cosma             330  8.3    1.469    1.535    1.469    1.535
 transfer_rs2pw_90                   74  9.0    0.193    0.230    1.370    1.526
 dbt_tas_communicate_buffer        1124 16.5    0.012    0.020    1.179    1.516
 check_sparsity_3c                    1  7.0    0.000    0.000    1.503    1.503
 fm_to_local_tensor                 152  8.0    0.002    0.002    1.450    1.460
 cp2k_distribution_to_z_slices       74  9.0    0.141    0.172    1.238    1.442
 fft_wrap_pw1pw2_90                 148 10.5    0.015    0.022    1.004    1.402
 arnoldi_conjugate_gradient           5  6.0    0.013    0.016    1.345    1.345
 dbt_reserve_blocks_index           825 12.3    0.002    0.002    0.870    1.295
 dbt_tas_reshape_buffer_obtain      638 15.5    0.638    0.882    0.980    1.269
 dbm_add                            486 14.4    0.674    1.207    0.674    1.207
 mp_isend_dm3                      3268 11.5    0.167    1.087    0.167    1.087
 compute_cfm_W_ikp_freq_j            30 10.0    0.001    0.003    1.056    1.078
 calc_pair_dist_radii                 1 10.0    0.716    0.737    1.036    1.060
 compute_V_xc                         1  7.0    0.000    0.000    1.046    1.059
 fm_write                           121  9.0    0.003    0.066    0.597    1.051
 calculate_rho_atom_coeff            74  6.0    0.123    0.230    1.027    1.028
 dbt_tas_reshape_buffer_fill        638 15.5    0.706    1.006    0.706    1.006
 cp_fm_write_unformatted            125  9.9    0.575    0.928    0.602    1.002
 write_matrix                        91  8.0    0.000    0.000    0.522    0.911
 dbt_tas_reshape_communicate_bu     638 15.5    0.008    0.009    0.617    0.889
 dbt_communicate_buffer             274 11.9    0.003    0.004    0.628    0.883
 copy_dbcsr_to_fm                   267  8.4    0.003    0.003    0.772    0.858
 dbcsr_sym_matrix_vector_mult      6895  7.0    0.032    0.034    0.754    0.835
 dbt_tas_replicate                  486 14.4    0.047    0.081    0.695    0.827
 update_ks_atom                      74  8.0    0.081    0.167    0.723    0.797
 dbt_reserve_blocks_index_array     516 12.0    0.001    0.001    0.515    0.794
 powell_optimize                 733416 11.0    0.765    0.788    0.765    0.788
 mp_comm_split_direct              1620 17.2    0.782    0.785    0.782    0.785
 Vh_1c_gg_integrals                  74  8.0    0.022    0.769    0.776    0.783
 G_occ_vir                          121  8.0    0.002    0.003    0.750    0.781
 mp_bcast_dm                       2517  9.0    0.763    0.780    0.763    0.780
 xc_functional_eval                 365 10.8    0.001    0.001    0.452    0.774
 pbe_lda_eval                       365 11.8    0.451    0.773    0.451    0.773
 dbt_crop                           212 11.0    0.402    0.543    0.571    0.756
 compute_QP_energies                  1  7.0    0.000    0.000    0.754    0.756
 mp_max_i                          1022  6.7    0.445    0.747    0.445    0.747
 dbt_create_matrix                  152  9.0    0.001    0.001    0.729    0.737
 grid_integrate_task_list            74 10.0    0.098    0.735    0.098    0.735
 transfer_rs2pw_30                   74  9.0    0.292    0.319    0.624    0.706
 rs_gather_matrices                  74 10.0    0.002    0.008    0.313    0.700
 mp_send_dv                         125 10.9    0.027    0.697    0.027    0.697
 transfer_pw2rs_30                   74 12.0    0.161    0.204    0.571    0.679
 dbcsr_complete_redistribute        565  9.5    0.016    0.036    0.642    0.679
 dbt_distribution_new_expert        316 10.5    0.002    0.002    0.676    0.677
 rs_grid_zero                       372 11.2    0.505    0.658    0.505    0.658
 integrate_four_center_getP          74 10.0    0.021    0.029    0.446    0.656
 to_ikp_and_mo                       62  8.0    0.001    0.003    0.637    0.637
 dbcsr_rep_row_to_rep_col_vec      6895  8.0    0.012    0.014    0.305    0.616
 mp_alltoall_i                     1917 14.5    0.563    0.605    0.563    0.605
 build_3c_integrals_put_dbcsr      2740 10.6    0.196    0.602    0.196    0.602
 fm_Gamma_ao_to_cfm_ikp_mo           62  9.0    0.000    0.000    0.554    0.585
 mp_irecv_dm3                      3268 11.5    0.023    0.560    0.023    0.560
 calculate_rho0_atom                296  9.0    0.533    0.551    0.533    0.551
 pw_derive                          660 11.3    0.462    0.548    0.462    0.548
 pw_copy                           1105 10.6    0.453    0.542    0.453    0.542
 mp_cart_create                    3238 14.7    0.488    0.523    0.490    0.525
 alloc_block_3c                     157 10.6    0.004    0.006    0.362    0.508
 dbt_tas_replicate_communicate_     304 15.5    0.002    0.003    0.392    0.506
 mp_alltoall_i22                    838 10.4    0.427    0.501    0.427    0.501
 mp_sendrecv_dv                   28268 10.0    0.395    0.488    0.395    0.488
 pw_gather_p                        737 11.8    0.375    0.451    0.375    0.451
 mp_isend_dv                      38512 12.6    0.195    0.450    0.195    0.450
 multiply_fm_W_MIC_time_with_Mi       2  9.0    0.000    0.000    0.409    0.409
 pw_scatter_p                       808 12.1    0.340    0.387    0.340    0.387
 fft_wrap_pw1pw2_30                 148 10.5    0.002    0.003    0.305    0.380
 mp_alltoall_z11v                   296 13.5    0.346    0.373    0.346    0.373
 dbcsr_desymmetrize_deep            273  9.4    0.004    0.007    0.310    0.362
 setup_time_and_frequency_minim       1  7.0    0.000    0.000    0.343    0.359
 cp_fm_power                          3  8.7    0.001    0.002    0.341    0.347
 pw_integral_ab_c1d_c1d_gs           74  9.0    0.095    0.110    0.240    0.343
 pw_poisson_set                      75  9.0    0.001    0.002    0.313    0.331
 cp_fm_redistribute_start            79  8.1    0.202    0.255    0.264    0.330
 dbcsr_col_vec_to_rep_row          6895  8.0    0.015    0.018    0.206    0.316
 pw_copy_to_array                   737 11.8    0.231    0.306    0.231    0.306
 dbt_copy_nocomm                     30 10.0    0.160    0.205    0.242    0.300
 dbt_tas_merge                      182 14.2    0.036    0.056    0.241    0.286
 cp_fm_symm                          73  7.0    0.271    0.284    0.271    0.284
 dbt_tas_reshape_alltoall           638 15.5    0.001    0.001    0.268    0.278
 mp_cart_sub                        552 10.4    0.254    0.268    0.254    0.268
 mp_irecv_dv                      36673 12.6    0.038    0.249    0.038    0.249
 pw_copy_from_array                 808 12.1    0.123    0.231    0.123    0.231
 integrate_four_center_dist_KS       74 10.0    0.020    0.026    0.222    0.223
 copy_fm_to_dbcsr                   298  8.5    0.001    0.001    0.179    0.219
 dbt_tas_merge_communicate_buff     182 15.2    0.002    0.002    0.182    0.214
 calculate_dm_sparse                 73  6.0    0.000    0.000    0.199    0.210
 cp_dbcsr_plus_fm_fm_t               73  7.0    0.001    0.001    0.198    0.209
 dbt_tas_replicate_alltoall         304 15.5    0.000    0.000    0.168    0.207
 qs_init_subsys                       1  2.0    0.002    0.002    0.205    0.206
 cp_cfm_geeig                         2  7.0    0.000    0.000    0.202    0.202
 xz_to_yz                           148 11.0    0.004    0.006    0.179    0.201
 yz_to_xz                           148 14.0    0.007    0.014    0.178    0.199
 pw_axpy                            735  9.3    0.165    0.198    0.165    0.198
 mp_sum_i                           648 14.2    0.149    0.186    0.149    0.186
 cp_cfm_cholesky_invert              31 11.0    0.179    0.185    0.179    0.185
 qs_env_setup                         1  3.0    0.000    0.000    0.181    0.184
 qs_env_rebuild_pw_env                2  3.5    0.000    0.000    0.181    0.183
 pw_env_rebuild                       1  5.0    0.000    0.000    0.181    0.183
 global_matrix_to_local_matrix      152  9.0    0.002    0.002    0.147    0.183
 send_sizes_1                       152 10.0    0.000    0.000    0.133    0.170
 fft_wrap_pw1pw2_10                 148 10.5    0.001    0.001    0.149    0.167
 transfer_pw2rs_10                   74 12.0    0.042    0.049    0.149    0.165
 mp_alltoall_i11v                  1968 10.5    0.082    0.160    0.082    0.160
 dbcsr_add_d                      11299  7.3    0.003    0.004    0.032    0.159
 cp_cfm_cholesky_decompose           35 10.7    0.150    0.157    0.150    0.157
 dbcsr_add_anytype                11299  8.3    0.005    0.025    0.029    0.155
 mp_rank_compare                   1545 13.0    0.127    0.135    0.127    0.135
 pw_zero                            440 10.3    0.117    0.135    0.117    0.135
 pw_grid_setup                        4  6.0    0.000    0.000    0.131    0.134
 pw_grid_setup_internal               4  7.0    0.001    0.001    0.131    0.134
 cp_fm_uplo_to_full                  82  9.1    0.038    0.134    0.038    0.134
 mp_bcast_dv                       6974  9.0    0.081    0.133    0.081    0.133
 dbt_create_new                     158 10.0    0.001    0.001    0.123    0.133
 dbcsr_multiply_generic              73  8.0    0.002    0.002    0.121    0.129
 get_l_sq_wghts_sin_tf_t_to_w         1  8.0    0.115    0.123    0.115    0.123
 dbt_reserve_blocks_template         30 11.0    0.000    0.004    0.082    0.123
 get_l_sq_wghts_cos_tf_t_to_w         1  8.0    0.117    0.122    0.117    0.122
 transfer_rs2pw_10                   74  9.0    0.050    0.059    0.113    0.122
 dbt_pgrid_create_expert            320 11.5    0.001    0.001    0.118    0.121
 dos_pdos_ldos                        1  5.0    0.000    0.000    0.113    0.118
 get_l_sq_wghts_cos_tf_w_to_t         1  8.0    0.111    0.116    0.112    0.117
 rs_scatter_matrices                 74  7.0    0.001    0.001    0.049    0.113
 create_qs_kind_set                   1  2.0    0.000    0.000    0.104    0.105
 read_qs_kind                         4  3.0    0.023    0.045    0.104    0.105
 create_and_init_bs_env               1  5.0    0.000    0.000    0.103    0.103
 compute_fm_chi_Gamma_freq           30 10.0    0.000    0.000    0.091    0.102
 dbcsr_finalize                   14000 11.1    0.008    0.034    0.029    0.100
 fill_fm_Sigma_c_Gamma_time           1  8.0    0.000    0.000    0.089    0.089
 dbcsr_copy                       28213  7.5    0.026    0.069    0.045    0.089
 diagonalize_ks_matrix                1  6.0    0.000    0.000    0.087    0.088
 cp_fm_geeig_canon                    1  7.0    0.000    0.000    0.087    0.088
 -------------------------------------------------------------------------------

 The number of warnings for this run is : 1
 
 -------------------------------------------------------------------------------
  **** **** ******  **  PROGRAM ENDED AT                 2025-10-26 19:08:12.226
 ***** ** ***  *** **   PROGRAM RAN ON                                    cn1303
 **    ****   ******    PROGRAM RAN BY                                  metdyn02
 ***** **    ** ** **   PROGRAM PROCESS ID                               1058514
  **** **  *******  **  PROGRAM STOPPED IN /scratch/hpc-prf-metdyn/metdyn02_Remi
                                           /04_mol/Benchmark_mol_low_scal/aUKBqs
                                           EOTmq69kFe5R_nOg/5k_set_final_qzvp/KI
                                           ZKUA/TZVP/1e-5/5.0
