&GLOBAL
  PROJECT  MoS2
  PRINT_LEVEL MEDIUM
  RUN_TYPE ENERGY
  &TIMINGS
     THRESHOLD 0.0001
  &END
  TRACE
  TRACE_MASTER
  TRACE_ROUTINES compute_chi dbt_create_2c_R dbt_create_3c_R1_R2 dbt_create G_occ_vir contract_M_occ_vir_to_chi local_dbt_to_global_fm
&END GLOBAL
&FORCE_EVAL
  METHOD Quickstep
  !&PROPERTIES
  !&TDDFPT                          ! input section for TDDFPT
  !     KERNEL FULL                       ! specification of the underlying kernel matrix K
  !                                       ! FULL kernel is for GGA and hybrid functional computations
  !                                       ! sTDA kernel is referring to a semi-empirical sTDA computation
  !     NSTATES 20                      ! specifies the number of excited states to be computed
  !     MAX_ITER   100                  ! number of iterations for the Davidson algorithm
  !     CONVERGENCE [eV] 1.0e-6         ! convergence threshold in eV
  !     &XC                            ! If choosing kernel FULL, the underlying functional can be
  !      &XC_FUNCTIONAL PBE0             ! specified by adding an XC section
  !      &END XC_FUNCTIONAL              ! The functional can be chosen independently from the chosen
  !	 &HF
  !        &MEMORY 
  !          MAX_MEMORY 8000
  !	   &END MEMORY
  !	 &END HF
  !     &END XC                        ! GS functional except when choosing ADMM 
  !  &END TDDFPT
  !  &END PROPERTIES
  &DFT
    BASIS_SET_FILE_NAME /hppfs/scratch/04/di38fab/04_TMD/BASIS_AUG_MOLOPT/BASIS_ALL_MOLOPT_AUG_for_excited_states
    BASIS_SET_FILE_NAME /hppfs/scratch/04/di38fab/04_TMD/BASIS_AUG_MOLOPT/BASIS_ALL_MOLOPT_AUG_for_excited_states_RI
    BASIS_SET_FILE_NAME /hppfs/scratch/04/di38fab/04_TMD/BASIS_AUG_MOLOPT/aug-cc-pVZ
    BASIS_SET_FILE_NAME /hppfs/scratch/04/di38fab/04_TMD/BASIS_AUG_MOLOPT/aug-cc-pVZ-TOTRI
    BASIS_SET_FILE_NAME /hppfs/scratch/04/di38fab/04_TMD/BASIS_AUG_MOLOPT/cc-pVZ
    BASIS_SET_FILE_NAME /hppfs/scratch/04/di38fab/04_TMD/BASIS_AUG_MOLOPT/cc-pVZ-RI
    BASIS_SET_FILE_NAME /hppfs/scratch/04/di38fab/04_TMD/BASIS_AUG_MOLOPT/BASIS_MOLOPT_UZH
    SORT_BASIS EXP
    POTENTIAL_FILE_NAME  /hppfs/work/pn36zo/di38fab/cp2k/data/ALL_POTENTIALS 
    CHARGE 0
    &MGRID
      CUTOFF  500
      REL_CUTOFF  100
    &END MGRID
    &POISSON
      PERIODIC NONE
      POISSON_SOLVER WAVELET
    &END POISSON
    &QS
      METHOD GAPW
      EPS_DEFAULT 1.0E-12
      EPS_PGF_ORB 1.0E-12
    &END QS
    &SCF
      SCF_GUESS ATOMIC
      EPS_SCF 1.0E-6
      MAX_SCF 500
      &PRINT
        &RESTART ON
        &END
      &END
      ADDED_MOS -1
      &MIXING
          METHOD BROYDEN_MIXING
          ALPHA 0.1
          BETA 1.5
          NBROYDEN 8
      &END
      CHOLESKY OFF
    &END SCF
    &XC
      &XC_FUNCTIONAL PBE0
      &END XC_FUNCTIONAL
      &HF
         &MEMORY
          MAX_MEMORY 8000
         &END MEMORY
      &END HF
      &WF_CORRELATION
      	&RI_RPA
	  QUADRATURE_POINTS 100
      	  &GW
	    CORR_MOS_OCC -1
	    CORR_MOS_VIRT -1
	    &BSE
              BSE_DIAG_METHOD FULLDIAG
              TDA OFF
            &END BSE 
          &END GW	
        &END RI_RPA
      &END WF_CORRELATION
    &END XC
    &PRINT
    &OVERLAP_CONDITION ON
    DIAGONALIZATION T
    &END OVERLAP_CONDITION
    &END PRINT
  &END DFT
    &SUBSYS
    &CELL
      ABC                 30 30 30
      ALPHA_BETA_GAMMA    90 90 90
      PERIODIC NONE
    &END CELL

     &KIND O
      BASIS_SET ORB cc-pVQZ
      BASIS_SET RI_AUX cc-pVQZ-RIFIT
      POTENTIAL ALL
     &END KIND

     &KIND F
      BASIS_SET ORB cc-pVQZ
      BASIS_SET RI_AUX cc-pVQZ-RIFIT
      POTENTIAL ALL
     &END KIND

     &KIND C
      BASIS_SET ORB cc-pVQZ
      BASIS_SET RI_AUX cc-pVQZ-RIFIT
      POTENTIAL ALL
     &END KIND

     &KIND H
      BASIS_SET ORB cc-pVQZ
      BASIS_SET RI_AUX cc-pVQZ-RIFIT
      POTENTIAL ALL
     &END KIND

    




    &TOPOLOGY
     &CENTER_COORDINATES T
     &END CENTER_COORDINATES
    &END TOPOLOGY


    &COORD
     O 11.75827578 21.85699127 29.22737106
     F 12.56720050 24.81924505 26.55004145
     O 11.92522559 23.44200881 31.84715033
     O 10.79467935 23.18354634 27.66939997
     C 12.72863140 23.99458321 28.79444829
     C 13.10005891 24.88072880 27.77648839
     C 13.37145128 24.09435962 30.04666976
     C 12.94823425 23.25491318 31.23058596
     C 11.73325851 22.89710030 28.60118271
     H 10.20961003 22.40140579 27.63328535
     H 13.55204281 21.85948103 32.33191987
     F 14.43811566 26.67633763 26.99670595
     F 15.64618837 26.87354828 29.43433290
     F 14.94551075 25.19564627 31.44133663
     O 13.88883528 22.34092537 31.55002982
     C 14.08586265 25.84936034 27.98582912
     C 14.70880932 25.94690297 29.22702027
     C 14.34367353 25.06466493 30.24783247
&END COORD
  &END SUBSYS
&END FORCE_EVAL
