SIRIUS 7.7.0, git hash: https://api.github.com/repos/electronic-structure/SIRIUS/git/ref/tags/v7.7.0
 DBCSR| CPU Multiplication driver                                           BLAS (U)
 DBCSR| Multrec recursion limit                                              512 (U)
 DBCSR| Multiplication stack size                                           1000 (D)
 DBCSR| Maximum elements for images                                    UNLIMITED (U)
 DBCSR| Multiplicative factor virtual images                                   1 (U)
 DBCSR| Use multiplication densification                                       T (D)
 DBCSR| Multiplication size stacks                                             3 (U)
 DBCSR| Use memory pool for CPU allocation                                     F (U)
 DBCSR| Number of 3D layers                                               SINGLE (U)
 DBCSR| Use MPI memory allocation                                              F (U)
 DBCSR| Use RMA algorithm                                                      F (U)
 DBCSR| Use Communication thread                                               T (U)
 DBCSR| Communication thread load                                             75 (D)
 DBCSR| MPI: My process id                                                     0
 DBCSR| MPI: Number of processes                                             192
 DBCSR| OMP: Current number of threads                                         4
 DBCSR| OMP: Max number of threads                                             4
 DBCSR| Split modifier for TAS multiplication algorithm                  1.0E+00 (U)


  **** **** ******  **  PROGRAM STARTED AT               2025-10-25 09:45:36.247
 ***** ** ***  *** **   PROGRAM STARTED ON                                cn0401
 **    ****   ******    PROGRAM STARTED BY                              metdyn02
 ***** **    ** ** **   PROGRAM PROCESS ID                               1700698
  **** **  *******  **  PROGRAM STARTED IN /scratch/hpc-prf-metdyn/metdyn02_Remi
                                           /04_mol/Benchmark_mol_low_scal/aUKBqs
                                           EOTmq69kFe5R_nOg/5k_set_final_qzvp/IH
                                           ECIH/DZVP/1e-5/9.0

 CP2K| version string:                 CP2K version 2025.2 (Development Version)
 CP2K| source code revision number:                                  git:2a4e9c4
 CP2K| cp2kflags: omp libint fftw3 libxc libgrpp elpa parallel scalapack mpi_f08
 CP2K|             cosma xsmm plumed2 spglib sirius libvori libbqb libvdwxc hdf5
 CP2K| is freely available from                            https://www.cp2k.org/
 CP2K| Program compiled at                      Fri Oct 24 04:52:17 PM CEST 2025
 CP2K| Program compiled on                                                login1
 CP2K| Program compiled for                                                local
 CP2K| Data directory path    /opt/software/pc2/EB-SW/software/CP2K/2025.2-foss-
 CP2K| Input file name                                                    GW.inp

 GLOBAL| Force Environment number                                              1
 GLOBAL| Basis set file name            /pc2/groups/hpc-prf-metdyn/metdyn02_Remi
 GLOBAL| Potential file name            /pc2/groups/hpc-prf-metdyn/metdyn02_Remi
 GLOBAL| MM Potential file name                                     MM_POTENTIAL
 GLOBAL| Coordinate file name                                      __STD_INPUT__
 GLOBAL| Method name                                                        CP2K
 GLOBAL| Project name                                                       MoS2
 GLOBAL| Run type                                                         ENERGY
 GLOBAL| FFT library                                                       FFTW3
 GLOBAL| Diagonalization library                                            ELPA
 GLOBAL| Cholesky decomposition library                                ScaLAPACK
 GLOBAL| DGEMM library                                                      BLAS
 GLOBAL| Minimum number of eigenvectors for ELPA usage                        16
 GLOBAL| Orthonormality check for eigenvectors                          DISABLED
 GLOBAL| Matrix multiplication library                                     COSMA
 GLOBAL| All-to-all communication in single precision                          F
 GLOBAL| FFTs using library dependent lengths                                  F
 GLOBAL| Grid backend                                                       AUTO
 GLOBAL| Global print level                                               MEDIUM
 GLOBAL| MPI I/O enabled                                                       T
 GLOBAL| Total number of message passing processes                           192
 GLOBAL| Number of distributed systems (nodes)                                 4
 GLOBAL| Number of threads for this process                                    4
 GLOBAL| This output is from process                                           0
 GLOBAL| OpenMP stack size per thread (OMP_STACKSIZE)                    default
 GLOBAL| CPU model name                          AMD EPYC 9655 96-Core Processor
 GLOBAL| CPUID                                                              1003

 MEMORY| system memory details [Kb]
 MEMORY|                        rank 0           min           max       average
 MEMORY| MemTotal            791039124     791039068     791039124     791039088
 MEMORY| MemFree             751190516     751190516     752201016     751886000
 MEMORY| Buffers                  3168          3164          3168          3165
 MEMORY| Cached                7795076       7607776       7795076       7693089
 MEMORY| Slab                  2076596       1979944       2076596       2007410
 MEMORY| SReclaimable           895332        835928        895332        851457
 MEMORY| MemLikelyFree       759884092     759884092     760648280     760433711


 *** Fundamental physical constants (SI units) ***

 *** Literature: B. J. Mohr and B. N. Taylor,
 ***             CODATA recommended values of the fundamental physical
 ***             constants: 2006, Web Version 5.1
 ***             http://physics.nist.gov/constants

 Speed of light in vacuum [m/s]                             2.99792458000000E+08
 Magnetic constant or permeability of vacuum [N/A**2]       1.25663706143592E-06
 Electric constant or permittivity of vacuum [F/m]          8.85418781762039E-12
 Planck constant (h) [J*s]                                  6.62606896000000E-34
 Planck constant (h-bar) [J*s]                              1.05457162825177E-34
 Elementary charge [C]                                      1.60217648700000E-19
 Electron mass [kg]                                         9.10938215000000E-31
 Electron g factor [ ]                                     -2.00231930436220E+00
 Proton mass [kg]                                           1.67262163700000E-27
 Fine-structure constant                                    7.29735253760000E-03
 Rydberg constant [1/m]                                     1.09737315685270E+07
 Avogadro constant [1/mol]                                  6.02214179000000E+23
 Boltzmann constant [J/K]                                   1.38065040000000E-23
 Atomic mass unit [kg]                                      1.66053878200000E-27
 Bohr radius [m]                                            5.29177208590000E-11

 *** Conversion factors ***

 [u] -> [a.u.]                                              1.82288848426455E+03
 [Angstrom] -> [Bohr] = [a.u.]                              1.88972613288564E+00
 [a.u.] = [Bohr] -> [Angstrom]                              5.29177208590000E-01
 [a.u.] -> [s]                                              2.41888432650478E-17
 [a.u.] -> [fs]                                             2.41888432650478E-02
 [a.u.] -> [J]                                              4.35974393937059E-18
 [a.u.] -> [N]                                              8.23872205491840E-08
 [a.u.] -> [K]                                              3.15774647902944E+05
 [a.u.] -> [kJ/mol]                                         2.62549961709828E+03
 [a.u.] -> [kcal/mol]                                       6.27509468713739E+02
 [a.u.] -> [Pa]                                             2.94210107994716E+13
 [a.u.] -> [bar]                                            2.94210107994716E+08
 [a.u.] -> [atm]                                            2.90362800883016E+08
 [a.u.] -> [eV]                                             2.72113838565563E+01
 [a.u.] -> [Hz]                                             6.57968392072181E+15
 [a.u.] -> [1/cm] (wave numbers)                            2.19474631370540E+05
 [a.u./Bohr**2] -> [1/cm]                                   5.14048714338585E+03
 

 CELL_TOP| Volume [angstrom^3]:                                     27000.000000
 CELL_TOP| Vector a [angstrom    30.000     0.000     0.000   |a| =    30.000000
 CELL_TOP| Vector b [angstrom     0.000    30.000     0.000   |b| =    30.000000
 CELL_TOP| Vector c [angstrom     0.000     0.000    30.000   |c| =    30.000000
 CELL_TOP| Angle (b,c), alpha [degree]:                                90.000000
 CELL_TOP| Angle (a,c), beta  [degree]:                                90.000000
 CELL_TOP| Angle (a,b), gamma [degree]:                                90.000000
 CELL_TOP| Numerically orthorhombic:                                         YES
 CELL_TOP| Periodicity                                                      NONE

 GENERATE|  Preliminary Number of Bonds generated:                             0
 GENERATE|  Achieved consistency in connectivity generation.

 CELL| Volume [angstrom^3]:                                         27000.000000
 CELL| Vector a [angstrom]:      30.000     0.000     0.000   |a| =    30.000000
 CELL| Vector b [angstrom]:       0.000    30.000     0.000   |b| =    30.000000
 CELL| Vector c [angstrom]:       0.000     0.000    30.000   |c| =    30.000000
 CELL| Angle (b,c), alpha [degree]:                                    90.000000
 CELL| Angle (a,c), beta  [degree]:                                    90.000000
 CELL| Angle (a,b), gamma [degree]:                                    90.000000
 CELL| Numerically orthorhombic:                                             YES
 CELL| Periodicity                                                          NONE

 CELL_REF| Volume [angstrom^3]:                                     27000.000000
 CELL_REF| Vector a [angstrom    30.000     0.000     0.000   |a| =    30.000000
 CELL_REF| Vector b [angstrom     0.000    30.000     0.000   |b| =    30.000000
 CELL_REF| Vector c [angstrom     0.000     0.000    30.000   |c| =    30.000000
 CELL_REF| Angle (b,c), alpha [degree]:                                90.000000
 CELL_REF| Angle (a,c), beta  [degree]:                                90.000000
 CELL_REF| Angle (a,b), gamma [degree]:                                90.000000
 CELL_REF| Numerically orthorhombic:                                         YES
 CELL_REF| Periodicity                                                      NONE

 *******************************************************************************
 *******************************************************************************
 **                                                                           **
 **     #####                         ##              ##                      **
 **    ##   ##            ##          ##              ##                      **
 **   ##     ##                       ##            ######                    **
 **   ##     ##  ##   ##  ##   #####  ##  ##   ####   ##    #####    #####    **
 **   ##     ##  ##   ##  ##  ##      ## ##   ##      ##   ##   ##  ##   ##   **
 **   ##  ## ##  ##   ##  ##  ##      ####     ###    ##   ######   ######    **
 **    ##  ###   ##   ##  ##  ##      ## ##      ##   ##   ##       ##        **
 **     #######   #####   ##   #####  ##  ##  ####    ##    #####   ##        **
 **           ##                                                    ##        **
 **                                                                           **
 **                                                ... make the atoms dance   **
 **                                                                           **
 **            Copyright (C) by CP2K developers group (2000-2025)             **
 **                      J. Chem. Phys. 152, 194103 (2020)                    **
 **                                                                           **
 *******************************************************************************

 DFT| Spin restricted Kohn-Sham (RKS) calculation                            RKS
 DFT| Multiplicity                                                             1
 DFT| Number of spin states                                                    1
 DFT| Charge                                                                   0
 DFT| Self-interaction correction (SIC)                                       NO
 DFT| Cutoffs: density                                              1.000000E-10
 DFT|          gradient                                             1.000000E-10
 DFT|          tau                                                  1.000000E-10
 DFT|          cutoff_smoothing_range                               0.000000E+00
 DFT| XC density smoothing                                                  NONE
 DFT| XC derivatives                                                          PW

 FUNCTIONAL| PBE:
 FUNCTIONAL| J.P.Perdew, K.Burke, M.Ernzerhof, Phys. Rev. Letter, vol. 77, n 18,
 FUNCTIONAL|  pp. 3865-3868, (1996)sx=0.750sc=1.000{spin unpolarized}           


 QS| Method:                                                                GAPW
 QS| Density plane wave grid type                        NON-SPHERICAL FULLSPACE
 QS| Number of grid levels:                                                    4
 QS| Density cutoff [a.u.]:                                                250.0
 QS| Multi grid cutoff [a.u.]: 1) grid level                               250.0
 QS|                           2) grid level                                83.3
 QS|                           3) grid level                                27.8
 QS|                           4) grid level                                 9.3
 QS| Grid level progression factor:                                          3.0
 QS| Relative density cutoff [a.u.]:                                        50.0
 QS| Interaction thresholds: eps_pgf_orb:                                1.0E-12
 QS|                         eps_filter_matrix:                          0.0E+00
 QS|                         eps_core_charge:                            1.0E-14
 QS|                         eps_rho_gspace:                             1.0E-12
 QS|                         eps_rho_rspace:                             1.0E-12
 QS|                         eps_gvg_rspace:                             1.0E-06
 QS|                         eps_ppl:                                    1.0E-02
 QS|                         eps_ppnl:                                   1.0E-08
 QS| GAPW|      One center basis from orbital basis primitives
 QS| GAPW|                   eps_fit:                                    1.0E-04
 QS| GAPW|                   eps_iso:                                    1.0E-12
 QS| GAPW|                   eps_svd:                                    1.0E-08
 QS| GAPW|                   eps_cpc:                                    1.0E-12
 QS| GAPW|   atom-r-grid: quadrature:                                     GC_LOG
 QS| GAPW|      atom-s-grid:  max l :                                          6
 QS| GAPW|      max_l_rho0 :                                                   2


 ATOMIC KIND INFORMATION

  1. Atomic kind: H                                     Number of atoms:       7

     Orbital Basis Set                                        aug-DZVP-MOLOPT-ae

       Number of orbital shell sets:                                           1
       Number of orbital shells:                                               5
       Number of primitive Cartesian functions:                                5
       Number of Cartesian basis functions:                                    9
       Number of spherical basis functions:                                    9
       Norm type:                                                              2

       Normalised Cartesian orbitals:

                        Set   Shell   Orbital            Exponent    Coefficient

                          1       1    2s                0.035000       0.000000
                                                         0.111920       0.009149
                                                         0.374948       0.205449
                                                         1.446686       0.373852
                                                        12.248855       0.310040

                          1       2    3s                0.035000       0.000000
                                                         0.111920       0.143650
                                                         0.374948       0.007287
                                                         1.446686      -0.188851
                                                        12.248855      -0.144753

                          1       3    4s                0.035000       0.090463
                                                         0.111920      -0.203934
                                                         0.374948      -0.000376
                                                         1.446686      -0.000051
                                                        12.248855       0.000000

                          1       4    3px               0.035000       0.000000
                                                         0.111920       0.007225
                                                         0.374948       0.280770
                                                         1.446686       0.896497
                                                        12.248855      -0.764411
                          1       4    3py               0.035000       0.000000
                                                         0.111920       0.007225
                                                         0.374948       0.280770
                                                         1.446686       0.896497
                                                        12.248855      -0.764411
                          1       4    3pz               0.035000       0.000000
                                                         0.111920       0.007225
                                                         0.374948       0.280770
                                                         1.446686       0.896497
                                                        12.248855      -0.764411

                          1       5    4px               0.035000       0.011331
                                                         0.111920       0.048737
                                                         0.374948       0.028490
                                                         1.446686       0.035587
                                                        12.248855       0.000000
                          1       5    4py               0.035000       0.011331
                                                         0.111920       0.048737
                                                         0.374948       0.028490
                                                         1.446686       0.035587
                                                        12.248855       0.000000
                          1       5    4pz               0.035000       0.011331
                                                         0.111920       0.048737
                                                         0.374948       0.028490
                                                         1.446686       0.035587
                                                        12.248855       0.000000

     RI Auxiliary Basis Set             RI_aug-DZVP-MOLOPT-ae_N_RI_018_s_p_d_f_g

       Number of orbital shell sets:                                           8
       Number of orbital shells:                                               8
       Number of primitive Cartesian functions:                                8
       Number of Cartesian basis functions:                                   19
       Number of spherical basis functions:                                   18
       Norm type:                                                              2

       Normalised Cartesian orbitals:

                        Set   Shell   Orbital            Exponent    Coefficient

                          1       1    5px               0.231880       0.229361
                          1       1    5py               0.231880       0.229361
                          1       1    5pz               0.231880       0.229361

                          2       1    1s                0.242716       0.246453

                          3       1    2s                0.577380       0.472070

                          4       1    6px               0.634295       0.806871
                          4       1    6py               0.634295       0.806871
                          4       1    6pz               0.634295       0.806871

                          5       1    8dx2              1.203508       2.276119
                          5       1    8dxy              1.203508       3.942354
                          5       1    8dxz              1.203508       3.942354
                          5       1    8dy2              1.203508       2.276119
                          5       1    8dyz              1.203508       3.942354
                          5       1    8dz2              1.203508       2.276119

                          6       1    3s                1.798376       1.106803

                          7       1    7px               1.931390       3.245469
                          7       1    7py               1.931390       3.245469
                          7       1    7pz               1.931390       3.245469

                          8       1    4s                9.576928       3.879982

       Atomic covalent radius [Angstrom]:                                  0.320

       Atomic van der Waals radius [Angstrom]:                             1.090

     The atoms of this atomic kind are PAW atoms (GAPW):
       Hard Gaussian function radius:                                      1.200
       Rho0 radius:                                                        1.200
       Maximum GTO radius used for PAW projector construction:            24.566

     GAPW Soft Basis Set                                 aug-DZVP-MOLOPT-ae_soft

       Number of orbital shell sets:                                           1
       Number of orbital shells:                                               5
       Number of primitive Cartesian functions:                                4
       Number of Cartesian basis functions:                                    9
       Number of spherical basis functions:                                    9
       Norm type:                                                              2

       Normalised Cartesian orbitals:

                        Set   Shell   Orbital            Exponent    Coefficient

                          1       1    2s                0.035000       0.000000
                                                         0.111920       0.009149
                                                         0.374948       0.205449
                                                         1.446686       0.373852

                          1       2    3s                0.035000       0.000000
                                                         0.111920       0.143650
                                                         0.374948       0.007287
                                                         1.446686      -0.188851

                          1       3    4s                0.035000       0.090463
                                                         0.111920      -0.203934
                                                         0.374948      -0.000376
                                                         1.446686      -0.000051

                          1       4    3px               0.035000       0.000000
                                                         0.111920       0.007225
                                                         0.374948       0.280770
                                                         1.446686       0.896497
                          1       4    3py               0.035000       0.000000
                                                         0.111920       0.007225
                                                         0.374948       0.280770
                                                         1.446686       0.896497
                          1       4    3pz               0.035000       0.000000
                                                         0.111920       0.007225
                                                         0.374948       0.280770
                                                         1.446686       0.896497

                          1       5    4px               0.035000       0.011331
                                                         0.111920       0.048737
                                                         0.374948       0.028490
                                                         1.446686       0.035587
                          1       5    4py               0.035000       0.011331
                                                         0.111920       0.048737
                                                         0.374948       0.028490
                                                         1.446686       0.035587
                          1       5    4pz               0.035000       0.011331
                                                         0.111920       0.048737
                                                         0.374948       0.028490
                                                         1.446686       0.035587

     AE Potential information for                                            ALL

       Description:                                       All-electron potential
                                          Krack, Parrinello, PCCP 2, 2105 (2000)

       Gaussian exponent of the core charge distribution:              12.500000
       Electronic configuration (s p d ...):                           1   0   0

  2. Atomic kind: C                                     Number of atoms:       7

     Orbital Basis Set                                        aug-DZVP-MOLOPT-ae

       Number of orbital shell sets:                                           2
       Number of orbital shells:                                              10
       Number of primitive Cartesian functions:                               13
       Number of Cartesian basis functions:                                   35
       Number of spherical basis functions:                                   30
       Norm type:                                                              2

       Normalised Cartesian orbitals:

                        Set   Shell   Orbital            Exponent    Coefficient

                          1       1    2px               0.050000       0.000000
                                                         0.096935       0.005344
                                                         0.300899       0.144116
                                                         0.937529       0.673511
                                                         4.145546       1.425967
                          1       1    2py               0.050000       0.000000
                                                         0.096935       0.005344
                                                         0.300899       0.144116
                                                         0.937529       0.673511
                                                         4.145546       1.425967
                          1       1    2pz               0.050000       0.000000
                                                         0.096935       0.005344
                                                         0.300899       0.144116
                                                         0.937529       0.673511
                                                         4.145546       1.425967

                          1       2    3px               0.050000       0.000000
                                                         0.096935       0.066903
                                                         0.300899       0.082631
                                                         0.937529      -0.414500
                                                         4.145546      -0.833488
                          1       2    3py               0.050000       0.000000
                                                         0.096935       0.066903
                                                         0.300899       0.082631
                                                         0.937529      -0.414500
                                                         4.145546      -0.833488
                          1       2    3pz               0.050000       0.000000
                                                         0.096935       0.066903
                                                         0.300899       0.082631
                                                         0.937529      -0.414500
                                                         4.145546      -0.833488

                          1       3    4px               0.050000       0.052477
                                                         0.096935      -0.149600
                                                         0.300899      -0.031452
                                                         0.937529       0.106528
                                                         4.145546       0.000000
                          1       3    4py               0.050000       0.052477
                                                         0.096935      -0.149600
                                                         0.300899      -0.031452
                                                         0.937529       0.106528
                                                         4.145546       0.000000
                          1       3    4pz               0.050000       0.052477
                                                         0.096935      -0.149600
                                                         0.300899      -0.031452
                                                         0.937529       0.106528
                                                         4.145546       0.000000

                          1       4    3dx2              0.050000       0.000000
                                                         0.096935       0.001258
                                                         0.300899       0.105504
                                                         0.937529       0.830801
                                                         4.145546       0.718979
                          1       4    3dxy              0.050000       0.000000
                                                         0.096935       0.002179
                                                         0.300899       0.182739
                                                         0.937529       1.438990
                                                         4.145546       1.245309
                          1       4    3dxz              0.050000       0.000000
                                                         0.096935       0.002179
                                                         0.300899       0.182739
                                                         0.937529       1.438990
                                                         4.145546       1.245309
                          1       4    3dy2              0.050000       0.000000
                                                         0.096935       0.001258
                                                         0.300899       0.105504
                                                         0.937529       0.830801
                                                         4.145546       0.718979
                          1       4    3dyz              0.050000       0.000000
                                                         0.096935       0.002179
                                                         0.300899       0.182739
                                                         0.937529       1.438990
                                                         4.145546       1.245309
                          1       4    3dz2              0.050000       0.000000
                                                         0.096935       0.001258
                                                         0.300899       0.105504
                                                         0.937529       0.830801
                                                         4.145546       0.718979

                          1       5    4dx2              0.050000      -0.011665
                                                         0.096935       0.057456
                                                         0.300899      -0.258169
                                                         0.937529       0.000000
                                                         4.145546       0.000000
                          1       5    4dxy              0.050000      -0.020204
                                                         0.096935       0.099516
                                                         0.300899      -0.447162
                                                         0.937529       0.000000
                                                         4.145546       0.000000
                          1       5    4dxz              0.050000      -0.020204
                                                         0.096935       0.099516
                                                         0.300899      -0.447162
                                                         0.937529       0.000000
                                                         4.145546       0.000000
                          1       5    4dy2              0.050000      -0.011665
                                                         0.096935       0.057456
                                                         0.300899      -0.258169
                                                         0.937529       0.000000
                                                         4.145546       0.000000
                          1       5    4dyz              0.050000      -0.020204
                                                         0.096935       0.099516
                                                         0.300899      -0.447162
                                                         0.937529       0.000000
                                                         4.145546       0.000000
                          1       5    4dz2              0.050000      -0.011665
                                                         0.096935       0.057456
                                                         0.300899      -0.258169
                                                         0.937529       0.000000
                                                         4.145546       0.000000

                          1       6    4fx3              0.050000      -0.000180
                                                         0.096935       0.008160
                                                         0.300899       0.004002
                                                         0.937529       0.000000
                                                         4.145546       0.000000
                          1       6    4fx2y             0.050000      -0.000402
                                                         0.096935       0.018246
                                                         0.300899       0.008949
                                                         0.937529       0.000000
                                                         4.145546       0.000000
                          1       6    4fx2z             0.050000      -0.000402
                                                         0.096935       0.018246
                                                         0.300899       0.008949
                                                         0.937529       0.000000
                                                         4.145546       0.000000
                          1       6    4fxy2             0.050000      -0.000402
                                                         0.096935       0.018246
                                                         0.300899       0.008949
                                                         0.937529       0.000000
                                                         4.145546       0.000000
                          1       6    4fxyz             0.050000      -0.000696
                                                         0.096935       0.031603
                                                         0.300899       0.015500
                                                         0.937529       0.000000
                                                         4.145546       0.000000
                          1       6    4fxz2             0.050000      -0.000402
                                                         0.096935       0.018246
                                                         0.300899       0.008949
                                                         0.937529       0.000000
                                                         4.145546       0.000000
                          1       6    4fy3              0.050000      -0.000180
                                                         0.096935       0.008160
                                                         0.300899       0.004002
                                                         0.937529       0.000000
                                                         4.145546       0.000000
                          1       6    4fy2z             0.050000      -0.000402
                                                         0.096935       0.018246
                                                         0.300899       0.008949
                                                         0.937529       0.000000
                                                         4.145546       0.000000
                          1       6    4fyz2             0.050000      -0.000402
                                                         0.096935       0.018246
                                                         0.300899       0.008949
                                                         0.937529       0.000000
                                                         4.145546       0.000000
                          1       6    4fz3              0.050000      -0.000180
                                                         0.096935       0.008160
                                                         0.300899       0.004002
                                                         0.937529       0.000000
                                                         4.145546       0.000000

                          2       1    1s                0.060000       0.000000
                                                         0.161278       0.024253
                                                         0.523772      -0.029268
                                                         3.176528       0.666384
                                                        10.501907       2.110671
                                                        40.805234       2.242010
                                                       186.270922       1.801845
                                                      1238.394264      -0.490536

                          2       2    2s                0.060000       0.000000
                                                         0.161278       0.080328
                                                         0.523772       0.279468
                                                         3.176528      -0.079506
                                                        10.501907      -0.033488
                                                        40.805234       0.350132
                                                       186.270922      -0.108171
                                                      1238.394264       0.147138

                          2       3    3s                0.060000       0.000000
                                                         0.161278       0.225687
                                                         0.523772      -0.382710
                                                         3.176528      -0.308205
                                                        10.501907      -0.974990
                                                        40.805234      -2.174132
                                                       186.270922       1.755878
                                                      1238.394264     -12.484315

                          2       4    4s                0.060000      -0.055653
                                                         0.161278      -0.019607
                                                         0.523772       0.500289
                                                         3.176528       0.067234
                                                        10.501907       0.000000
                                                        40.805234       0.000000
                                                       186.270922       0.000000
                                                      1238.394264       0.000000

     RI Auxiliary Basis Set             RI_aug-DZVP-MOLOPT-ae_N_RI_067_s_p_d_f_g

       Number of orbital shell sets:                                          19
       Number of orbital shells:                                              19
       Number of primitive Cartesian functions:                               19
       Number of Cartesian basis functions:                                   85
       Number of spherical basis functions:                                   67
       Norm type:                                                              2

       Normalised Cartesian orbitals:

                        Set   Shell   Orbital            Exponent    Coefficient

                          1       1    1s                0.139231       0.162447

                          2       1    8px               0.184200       0.172009
                          2       1    8py               0.184200       0.172009
                          2       1    8pz               0.184200       0.172009

                          3       1   13dx2              0.224561       0.120572
                          3       1   13dxy              0.224561       0.208836
                          3       1   13dxz              0.224561       0.208836
                          3       1   13dy2              0.224561       0.120572
                          3       1   13dyz              0.224561       0.208836
                          3       1   13dz2              0.224561       0.120572

                          4       1   19gx4              0.250330       0.024680
                          4       1   19gx3y             0.250330       0.065297
                          4       1   19gx3z             0.250330       0.065297
                          4       1   19gx2y2            0.250330       0.084298
                          4       1   19gx2yz            0.250330       0.146009
                          4       1   19gx2z2            0.250330       0.084298
                          4       1   19gxy3             0.250330       0.065297
                          4       1   19gxy2z            0.250330       0.146009
                          4       1   19gxyz2            0.250330       0.146009
                          4       1   19gxz3             0.250330       0.065297
                          4       1   19gy4              0.250330       0.024680
                          4       1   19gy3z             0.250330       0.065297
                          4       1   19gy2z2            0.250330       0.084298
                          4       1   19gyz3             0.250330       0.065297
                          4       1   19gz4              0.250330       0.024680

                          5       1   16fx3              0.254992       0.068021
                          5       1   16fx2y             0.254992       0.152099
                          5       1   16fx2z             0.254992       0.152099
                          5       1   16fxy2             0.254992       0.152099
                          5       1   16fxyz             0.254992       0.263443
                          5       1   16fxz2             0.254992       0.152099
                          5       1   16fy3              0.254992       0.068021
                          5       1   16fy2z             0.254992       0.152099
                          5       1   16fyz2             0.254992       0.152099
                          5       1   16fz3              0.254992       0.068021

                          6       1    2s                0.359475       0.330873

                          7       1    9px               0.543591       0.665319
                          7       1    9py               0.543591       0.665319
                          7       1    9pz               0.543591       0.665319

                          8       1   14dx2              0.686964       0.853187
                          8       1   14dxy              0.686964       1.477763
                          8       1   14dxz              0.686964       1.477763
                          8       1   14dy2              0.686964       0.853187
                          8       1   14dyz              0.686964       1.477763
                          8       1   14dz2              0.686964       0.853187

                          9       1   17fx3              0.836935       0.986304
                          9       1   17fx2y             0.836935       2.205443
                          9       1   17fx2z             0.836935       2.205443
                          9       1   17fxy2             0.836935       2.205443
                          9       1   17fxyz             0.836935       3.819939
                          9       1   17fxz2             0.836935       2.205443
                          9       1   17fy3              0.836935       0.986304
                          9       1   17fy2z             0.836935       2.205443
                          9       1   17fyz2             0.836935       2.205443
                          9       1   17fz3              0.836935       0.986304

                         10       1    3s                1.049085       0.738785

                         11       1   10px               1.444523       2.257332
                         11       1   10py               1.444523       2.257332
                         11       1   10pz               1.444523       2.257332

                         12       1   15dx2              1.987695       5.476732
                         12       1   15dxy              1.987695       9.485978
                         12       1   15dxz              1.987695       9.485978
                         12       1   15dy2              1.987695       5.476732
                         12       1   15dyz              1.987695       9.485978
                         12       1   15dz2              1.987695       5.476732

                         13       1   18fx3              2.590590      12.534341
                         13       1   18fx2y             2.590590      28.027639
                         13       1   18fx2z             2.590590      28.027639
                         13       1   18fxy2             2.590590      28.027639
                         13       1   18fxyz             2.590590      48.545294
                         13       1   18fxz2             2.590590      28.027639
                         13       1   18fy3              2.590590      12.534341
                         13       1   18fy2z             2.590590      28.027639
                         13       1   18fyz2             2.590590      28.027639
                         13       1   18fz3              2.590590      12.534341

                         14       1    4s                3.115906       1.671469

                         15       1   11px               5.433474      11.824617
                         15       1   11py               5.433474      11.824617
                         15       1   11pz               5.433474      11.824617

                         16       1    5s                9.296846       3.794564

                         17       1   12px              16.947836      49.015440
                         17       1   12py              16.947836      49.015440
                         17       1   12pz              16.947836      49.015440

                         18       1    6s               27.681844       8.601147

                         19       1    7s               82.364615      19.485681

       Atomic covalent radius [Angstrom]:                                  0.770

       Atomic van der Waals radius [Angstrom]:                             1.700

     The atoms of this atomic kind are PAW atoms (GAPW):
       Hard Gaussian function radius:                                      1.512
       Rho0 radius:                                                        1.512
       Maximum GTO radius used for PAW projector construction:            24.566

     GAPW Soft Basis Set                                 aug-DZVP-MOLOPT-ae_soft

       Number of orbital shell sets:                                           2
       Number of orbital shells:                                              10
       Number of primitive Cartesian functions:                                9
       Number of Cartesian basis functions:                                   35
       Number of spherical basis functions:                                   30
       Norm type:                                                              2

       Normalised Cartesian orbitals:

                        Set   Shell   Orbital            Exponent    Coefficient

                          1       1    2px               0.050000       0.000000
                                                         0.096935       0.005344
                                                         0.300899       0.144116
                                                         0.937529       0.673511
                                                         4.145546       1.425967
                          1       1    2py               0.050000       0.000000
                                                         0.096935       0.005344
                                                         0.300899       0.144116
                                                         0.937529       0.673511
                                                         4.145546       1.425967
                          1       1    2pz               0.050000       0.000000
                                                         0.096935       0.005344
                                                         0.300899       0.144116
                                                         0.937529       0.673511
                                                         4.145546       1.425967

                          1       2    3px               0.050000       0.000000
                                                         0.096935       0.066903
                                                         0.300899       0.082631
                                                         0.937529      -0.414500
                                                         4.145546      -0.833488
                          1       2    3py               0.050000       0.000000
                                                         0.096935       0.066903
                                                         0.300899       0.082631
                                                         0.937529      -0.414500
                                                         4.145546      -0.833488
                          1       2    3pz               0.050000       0.000000
                                                         0.096935       0.066903
                                                         0.300899       0.082631
                                                         0.937529      -0.414500
                                                         4.145546      -0.833488

                          1       3    4px               0.050000       0.052477
                                                         0.096935      -0.149600
                                                         0.300899      -0.031452
                                                         0.937529       0.106528
                                                         4.145546       0.000000
                          1       3    4py               0.050000       0.052477
                                                         0.096935      -0.149600
                                                         0.300899      -0.031452
                                                         0.937529       0.106528
                                                         4.145546       0.000000
                          1       3    4pz               0.050000       0.052477
                                                         0.096935      -0.149600
                                                         0.300899      -0.031452
                                                         0.937529       0.106528
                                                         4.145546       0.000000

                          1       4    3dx2              0.050000       0.000000
                                                         0.096935       0.001258
                                                         0.300899       0.105504
                                                         0.937529       0.830801
                                                         4.145546       0.718979
                          1       4    3dxy              0.050000       0.000000
                                                         0.096935       0.002179
                                                         0.300899       0.182739
                                                         0.937529       1.438990
                                                         4.145546       1.245309
                          1       4    3dxz              0.050000       0.000000
                                                         0.096935       0.002179
                                                         0.300899       0.182739
                                                         0.937529       1.438990
                                                         4.145546       1.245309
                          1       4    3dy2              0.050000       0.000000
                                                         0.096935       0.001258
                                                         0.300899       0.105504
                                                         0.937529       0.830801
                                                         4.145546       0.718979
                          1       4    3dyz              0.050000       0.000000
                                                         0.096935       0.002179
                                                         0.300899       0.182739
                                                         0.937529       1.438990
                                                         4.145546       1.245309
                          1       4    3dz2              0.050000       0.000000
                                                         0.096935       0.001258
                                                         0.300899       0.105504
                                                         0.937529       0.830801
                                                         4.145546       0.718979

                          1       5    4dx2              0.050000      -0.011665
                                                         0.096935       0.057456
                                                         0.300899      -0.258169
                                                         0.937529       0.000000
                                                         4.145546       0.000000
                          1       5    4dxy              0.050000      -0.020204
                                                         0.096935       0.099516
                                                         0.300899      -0.447162
                                                         0.937529       0.000000
                                                         4.145546       0.000000
                          1       5    4dxz              0.050000      -0.020204
                                                         0.096935       0.099516
                                                         0.300899      -0.447162
                                                         0.937529       0.000000
                                                         4.145546       0.000000
                          1       5    4dy2              0.050000      -0.011665
                                                         0.096935       0.057456
                                                         0.300899      -0.258169
                                                         0.937529       0.000000
                                                         4.145546       0.000000
                          1       5    4dyz              0.050000      -0.020204
                                                         0.096935       0.099516
                                                         0.300899      -0.447162
                                                         0.937529       0.000000
                                                         4.145546       0.000000
                          1       5    4dz2              0.050000      -0.011665
                                                         0.096935       0.057456
                                                         0.300899      -0.258169
                                                         0.937529       0.000000
                                                         4.145546       0.000000

                          1       6    4fx3              0.050000      -0.000180
                                                         0.096935       0.008160
                                                         0.300899       0.004002
                                                         0.937529       0.000000
                                                         4.145546       0.000000
                          1       6    4fx2y             0.050000      -0.000402
                                                         0.096935       0.018246
                                                         0.300899       0.008949
                                                         0.937529       0.000000
                                                         4.145546       0.000000
                          1       6    4fx2z             0.050000      -0.000402
                                                         0.096935       0.018246
                                                         0.300899       0.008949
                                                         0.937529       0.000000
                                                         4.145546       0.000000
                          1       6    4fxy2             0.050000      -0.000402
                                                         0.096935       0.018246
                                                         0.300899       0.008949
                                                         0.937529       0.000000
                                                         4.145546       0.000000
                          1       6    4fxyz             0.050000      -0.000696
                                                         0.096935       0.031603
                                                         0.300899       0.015500
                                                         0.937529       0.000000
                                                         4.145546       0.000000
                          1       6    4fxz2             0.050000      -0.000402
                                                         0.096935       0.018246
                                                         0.300899       0.008949
                                                         0.937529       0.000000
                                                         4.145546       0.000000
                          1       6    4fy3              0.050000      -0.000180
                                                         0.096935       0.008160
                                                         0.300899       0.004002
                                                         0.937529       0.000000
                                                         4.145546       0.000000
                          1       6    4fy2z             0.050000      -0.000402
                                                         0.096935       0.018246
                                                         0.300899       0.008949
                                                         0.937529       0.000000
                                                         4.145546       0.000000
                          1       6    4fyz2             0.050000      -0.000402
                                                         0.096935       0.018246
                                                         0.300899       0.008949
                                                         0.937529       0.000000
                                                         4.145546       0.000000
                          1       6    4fz3              0.050000      -0.000180
                                                         0.096935       0.008160
                                                         0.300899       0.004002
                                                         0.937529       0.000000
                                                         4.145546       0.000000

                          2       1    1s                0.060000       0.000000
                                                         0.161278       0.024253
                                                         0.523772      -0.029268
                                                         3.176528       0.666384

                          2       2    2s                0.060000       0.000000
                                                         0.161278       0.080328
                                                         0.523772       0.279468
                                                         3.176528      -0.079506

                          2       3    3s                0.060000       0.000000
                                                         0.161278       0.225687
                                                         0.523772      -0.382710
                                                         3.176528      -0.308205

                          2       4    4s                0.060000      -0.055653
                                                         0.161278      -0.019607
                                                         0.523772       0.500289
                                                         3.176528       0.067234

     AE Potential information for                                            ALL

       Description:                                       All-electron potential
                                          Krack, Parrinello, PCCP 2, 2105 (2000)

       Gaussian exponent of the core charge distribution:               4.109048
       Electronic configuration (s p d ...):                           4   2   0

  3. Atomic kind: N                                     Number of atoms:       1

     Orbital Basis Set                                        aug-DZVP-MOLOPT-ae

       Number of orbital shell sets:                                           2
       Number of orbital shells:                                              10
       Number of primitive Cartesian functions:                               12
       Number of Cartesian basis functions:                                   35
       Number of spherical basis functions:                                   30
       Norm type:                                                              2

       Normalised Cartesian orbitals:

                        Set   Shell   Orbital            Exponent    Coefficient

                          1       1    2s                0.060000      -0.096639
                                                         0.166384       0.037538
                                                         0.634073      -0.055669
                                                         2.325354       0.000000
                                                        12.268174       0.000000

                          1       2    3px               0.060000       0.000000
                                                         0.166384      -0.031930
                                                         0.634073      -0.492962
                                                         2.325354      -1.380142
                                                        12.268174      -2.349358
                          1       2    3py               0.060000       0.000000
                                                         0.166384      -0.031930
                                                         0.634073      -0.492962
                                                         2.325354      -1.380142
                                                        12.268174      -2.349358
                          1       2    3pz               0.060000       0.000000
                                                         0.166384      -0.031930
                                                         0.634073      -0.492962
                                                         2.325354      -1.380142
                                                        12.268174      -2.349358

                          1       3    4px               0.060000       0.000000
                                                         0.166384       0.169694
                                                         0.634073      -0.220766
                                                         2.325354      -0.809234
                                                        12.268174      -0.998521
                          1       3    4py               0.060000       0.000000
                                                         0.166384       0.169694
                                                         0.634073      -0.220766
                                                         2.325354      -0.809234
                                                        12.268174      -0.998521
                          1       3    4pz               0.060000       0.000000
                                                         0.166384       0.169694
                                                         0.634073      -0.220766
                                                         2.325354      -0.809234
                                                        12.268174      -0.998521

                          1       4    5px               0.060000       0.028594
                                                         0.166384       0.063224
                                                         0.634073      -0.046183
                                                         2.325354       0.000000
                                                        12.268174       0.000000
                          1       4    5py               0.060000       0.028594
                                                         0.166384       0.063224
                                                         0.634073      -0.046183
                                                         2.325354       0.000000
                                                        12.268174       0.000000
                          1       4    5pz               0.060000       0.028594
                                                         0.166384       0.063224
                                                         0.634073      -0.046183
                                                         2.325354       0.000000
                                                        12.268174       0.000000

                          1       5    4dx2              0.060000       0.000000
                                                         0.166384       0.019402
                                                         0.634073       0.555487
                                                         2.325354       1.255926
                                                        12.268174      -0.426175
                          1       5    4dxy              0.060000       0.000000
                                                         0.166384       0.033606
                                                         0.634073       0.962132
                                                         2.325354       2.175327
                                                        12.268174      -0.738157
                          1       5    4dxz              0.060000       0.000000
                                                         0.166384       0.033606
                                                         0.634073       0.962132
                                                         2.325354       2.175327
                                                        12.268174      -0.738157
                          1       5    4dy2              0.060000       0.000000
                                                         0.166384       0.019402
                                                         0.634073       0.555487
                                                         2.325354       1.255926
                                                        12.268174      -0.426175
                          1       5    4dyz              0.060000       0.000000
                                                         0.166384       0.033606
                                                         0.634073       0.962132
                                                         2.325354       2.175327
                                                        12.268174      -0.738157
                          1       5    4dz2              0.060000       0.000000
                                                         0.166384       0.019402
                                                         0.634073       0.555487
                                                         2.325354       1.255926
                                                        12.268174      -0.426175

                          1       6    5dx2              0.060000      -0.008089
                                                         0.166384      -0.027907
                                                         0.634073      -0.057221
                                                         2.325354       0.000000
                                                        12.268174       0.000000
                          1       6    5dxy              0.060000      -0.014011
                                                         0.166384      -0.048336
                                                         0.634073      -0.099109
                                                         2.325354       0.000000
                                                        12.268174       0.000000
                          1       6    5dxz              0.060000      -0.014011
                                                         0.166384      -0.048336
                                                         0.634073      -0.099109
                                                         2.325354       0.000000
                                                        12.268174       0.000000
                          1       6    5dy2              0.060000      -0.008089
                                                         0.166384      -0.027907
                                                         0.634073      -0.057221
                                                         2.325354       0.000000
                                                        12.268174       0.000000
                          1       6    5dyz              0.060000      -0.014011
                                                         0.166384      -0.048336
                                                         0.634073      -0.099109
                                                         2.325354       0.000000
                                                        12.268174       0.000000
                          1       6    5dz2              0.060000      -0.008089
                                                         0.166384      -0.027907
                                                         0.634073      -0.057221
                                                         2.325354       0.000000
                                                        12.268174       0.000000

                          1       7    5fx3              0.060000       0.000067
                                                         0.166384       0.012645
                                                         0.634073       0.328269
                                                         2.325354       1.687172
                                                        12.268174       0.000000
                          1       7    5fx2y             0.060000       0.000150
                                                         0.166384       0.028275
                                                         0.634073       0.734031
                                                         2.325354       3.772631
                                                        12.268174       0.000000
                          1       7    5fx2z             0.060000       0.000150
                                                         0.166384       0.028275
                                                         0.634073       0.734031
                                                         2.325354       3.772631
                                                        12.268174       0.000000
                          1       7    5fxy2             0.060000       0.000150
                                                         0.166384       0.028275
                                                         0.634073       0.734031
                                                         2.325354       3.772631
                                                        12.268174       0.000000
                          1       7    5fxyz             0.060000       0.000260
                                                         0.166384       0.048973
                                                         0.634073       1.271379
                                                         2.325354       6.534389
                                                        12.268174       0.000000
                          1       7    5fxz2             0.060000       0.000150
                                                         0.166384       0.028275
                                                         0.634073       0.734031
                                                         2.325354       3.772631
                                                        12.268174       0.000000
                          1       7    5fy3              0.060000       0.000067
                                                         0.166384       0.012645
                                                         0.634073       0.328269
                                                         2.325354       1.687172
                                                        12.268174       0.000000
                          1       7    5fy2z             0.060000       0.000150
                                                         0.166384       0.028275
                                                         0.634073       0.734031
                                                         2.325354       3.772631
                                                        12.268174       0.000000
                          1       7    5fyz2             0.060000       0.000150
                                                         0.166384       0.028275
                                                         0.634073       0.734031
                                                         2.325354       3.772631
                                                        12.268174       0.000000
                          1       7    5fz3              0.060000       0.000067
                                                         0.166384       0.012645
                                                         0.634073       0.328269
                                                         2.325354       1.687172
                                                        12.268174       0.000000

                          2       1    1s                0.191012      -0.002582
                                                         0.666629       0.012902
                                                         4.403487      -0.858326
                                                        14.651380      -2.749170
                                                        57.692026      -2.958222
                                                       257.997554      -1.897300
                                                      1713.054433      -1.166486

                          2       2    2s                0.191012       0.079194
                                                         0.666629       0.351708
                                                         4.403487       0.009155
                                                        14.651380       0.000424
                                                        57.692026       0.772862
                                                       257.997554      -0.458166
                                                      1713.054433       0.520658

                          2       3    3s                0.191012       0.300064
                                                         0.666629      -0.436823
                                                         4.403487      -0.072962
                                                        14.651380      -0.095292
                                                        57.692026      -1.262420
                                                       257.997554       0.741400
                                                      1713.054433      -0.270364

     RI Auxiliary Basis Set             RI_aug-DZVP-MOLOPT-ae_N_RI_068_s_p_d_f_g

       Number of orbital shell sets:                                          18
       Number of orbital shells:                                              18
       Number of primitive Cartesian functions:                               18
       Number of Cartesian basis functions:                                   89
       Number of spherical basis functions:                                   68
       Norm type:                                                              2

       Normalised Cartesian orbitals:

                        Set   Shell   Orbital            Exponent    Coefficient

                          1       1    1s                0.316507       0.300745

                          2       1    7px               0.411372       0.469606
                          2       1    7py               0.411372       0.469606
                          2       1    7pz               0.411372       0.469606

                          3       1   12dx2              0.420321       0.361141
                          3       1   12dxy              0.420321       0.625515
                          3       1   12dxz              0.420321       0.625515
                          3       1   12dy2              0.420321       0.361141
                          3       1   12dyz              0.420321       0.625515
                          3       1   12dz2              0.420321       0.361141

                          4       1    2s                0.572208       0.468895

                          5       1   15fx3              0.629994       0.520548
                          5       1   15fx2y             0.629994       1.163981
                          5       1   15fx2z             0.629994       1.163981
                          5       1   15fxy2             0.629994       1.163981
                          5       1   15fxyz             0.629994       2.016074
                          5       1   15fxz2             0.629994       1.163981
                          5       1   15fy3              0.629994       0.520548
                          5       1   15fy2z             0.629994       1.163981
                          5       1   15fyz2             0.629994       1.163981
                          5       1   15fz3              0.629994       0.520548

                          6       1   17gx4              0.692736       0.405505
                          6       1   17gx3y             0.692736       1.072866
                          6       1   17gx3z             0.692736       1.072866
                          6       1   17gx2y2            0.692736       1.385065
                          6       1   17gx2yz            0.692736       2.399002
                          6       1   17gx2z2            0.692736       1.385065
                          6       1   17gxy3             0.692736       1.072866
                          6       1   17gxy2z            0.692736       2.399002
                          6       1   17gxyz2            0.692736       2.399002
                          6       1   17gxz3             0.692736       1.072866
                          6       1   17gy4              0.692736       0.405505
                          6       1   17gy3z             0.692736       1.072866
                          6       1   17gy2z2            0.692736       1.385065
                          6       1   17gyz3             0.692736       1.072866
                          6       1   17gz4              0.692736       0.405505

                          7       1    8px               0.809255       1.094074
                          7       1    8py               0.809255       1.094074
                          7       1    8pz               0.809255       1.094074

                          8       1   13dx2              1.116728       1.996720
                          8       1   13dxy              1.116728       3.458420
                          8       1   13dxz              1.116728       3.458420
                          8       1   13dy2              1.116728       1.996720
                          8       1   13dyz              1.116728       3.458420
                          8       1   13dz2              1.116728       1.996720

                          9       1   16fx3              1.860786       5.953484
                          9       1   16fx2y             1.860786      13.312396
                          9       1   16fx2z             1.860786      13.312396
                          9       1   16fxy2             1.860786      13.312396
                          9       1   16fxyz             1.860786      23.057746
                          9       1   16fxz2             1.860786      13.312396
                          9       1   16fy3              1.860786       5.953484
                          9       1   16fy2z             1.860786      13.312396
                          9       1   16fyz2             1.860786      13.312396
                          9       1   16fz3              1.860786       5.953484

                         10       1    3s                1.926951       1.165636

                         11       1   18gx4              2.001118       7.497825
                         11       1   18gx3y             2.001118      19.837381
                         11       1   18gx3z             2.001118      19.837381
                         11       1   18gx2y2            2.001118      25.609949
                         11       1   18gx2yz            2.001118      44.357732
                         11       1   18gx2z2            2.001118      25.609949
                         11       1   18gxy3             2.001118      19.837381
                         11       1   18gxy2z            2.001118      44.357732
                         11       1   18gxyz2            2.001118      44.357732
                         11       1   18gxz3             2.001118      19.837381
                         11       1   18gy4              2.001118       7.497825
                         11       1   18gy3z             2.001118      19.837381
                         11       1   18gy2z2            2.001118      25.609949
                         11       1   18gyz3             2.001118      19.837381
                         11       1   18gz4              2.001118       7.497825

                         12       1    9px               2.328647       4.100338
                         12       1    9py               2.328647       4.100338
                         12       1    9pz               2.328647       4.100338

                         13       1   14dx2              4.352409      21.586706
                         13       1   14dxy              4.352409      37.389272
                         13       1   14dxz              4.352409      37.389272
                         13       1   14dy2              4.352409      21.586706
                         13       1   14dyz              4.352409      37.389272
                         13       1   14dz2              4.352409      21.586706

                         14       1   10px               7.477199      17.624377
                         14       1   10py               7.477199      17.624377
                         14       1   10pz               7.477199      17.624377

                         15       1    4s                8.036605       3.401845

                         16       1   11px              22.170865      68.575405
                         16       1   11py              22.170865      68.575405
                         16       1   11pz              22.170865      68.575405

                         17       1    5s               30.191114       9.179509

                         18       1    6s              110.060970      24.217823

       Atomic covalent radius [Angstrom]:                                  0.750

       Atomic van der Waals radius [Angstrom]:                             1.550

     The atoms of this atomic kind are PAW atoms (GAPW):
       Hard Gaussian function radius:                                      1.512
       Rho0 radius:                                                        1.512
       Maximum GTO radius used for PAW projector construction:            24.566

     GAPW Soft Basis Set                                 aug-DZVP-MOLOPT-ae_soft

       Number of orbital shell sets:                                           2
       Number of orbital shells:                                              10
       Number of primitive Cartesian functions:                                6
       Number of Cartesian basis functions:                                   35
       Number of spherical basis functions:                                   30
       Norm type:                                                              2

       Normalised Cartesian orbitals:

                        Set   Shell   Orbital            Exponent    Coefficient

                          1       1    2s                0.060000      -0.096639
                                                         0.166384       0.037538
                                                         0.634073      -0.055669
                                                         2.325354       0.000000

                          1       2    3px               0.060000       0.000000
                                                         0.166384      -0.031930
                                                         0.634073      -0.492962
                                                         2.325354      -1.380142
                          1       2    3py               0.060000       0.000000
                                                         0.166384      -0.031930
                                                         0.634073      -0.492962
                                                         2.325354      -1.380142
                          1       2    3pz               0.060000       0.000000
                                                         0.166384      -0.031930
                                                         0.634073      -0.492962
                                                         2.325354      -1.380142

                          1       3    4px               0.060000       0.000000
                                                         0.166384       0.169694
                                                         0.634073      -0.220766
                                                         2.325354      -0.809234
                          1       3    4py               0.060000       0.000000
                                                         0.166384       0.169694
                                                         0.634073      -0.220766
                                                         2.325354      -0.809234
                          1       3    4pz               0.060000       0.000000
                                                         0.166384       0.169694
                                                         0.634073      -0.220766
                                                         2.325354      -0.809234

                          1       4    5px               0.060000       0.028594
                                                         0.166384       0.063224
                                                         0.634073      -0.046183
                                                         2.325354       0.000000
                          1       4    5py               0.060000       0.028594
                                                         0.166384       0.063224
                                                         0.634073      -0.046183
                                                         2.325354       0.000000
                          1       4    5pz               0.060000       0.028594
                                                         0.166384       0.063224
                                                         0.634073      -0.046183
                                                         2.325354       0.000000

                          1       5    4dx2              0.060000       0.000000
                                                         0.166384       0.019402
                                                         0.634073       0.555487
                                                         2.325354       1.255926
                          1       5    4dxy              0.060000       0.000000
                                                         0.166384       0.033606
                                                         0.634073       0.962132
                                                         2.325354       2.175327
                          1       5    4dxz              0.060000       0.000000
                                                         0.166384       0.033606
                                                         0.634073       0.962132
                                                         2.325354       2.175327
                          1       5    4dy2              0.060000       0.000000
                                                         0.166384       0.019402
                                                         0.634073       0.555487
                                                         2.325354       1.255926
                          1       5    4dyz              0.060000       0.000000
                                                         0.166384       0.033606
                                                         0.634073       0.962132
                                                         2.325354       2.175327
                          1       5    4dz2              0.060000       0.000000
                                                         0.166384       0.019402
                                                         0.634073       0.555487
                                                         2.325354       1.255926

                          1       6    5dx2              0.060000      -0.008089
                                                         0.166384      -0.027907
                                                         0.634073      -0.057221
                                                         2.325354       0.000000
                          1       6    5dxy              0.060000      -0.014011
                                                         0.166384      -0.048336
                                                         0.634073      -0.099109
                                                         2.325354       0.000000
                          1       6    5dxz              0.060000      -0.014011
                                                         0.166384      -0.048336
                                                         0.634073      -0.099109
                                                         2.325354       0.000000
                          1       6    5dy2              0.060000      -0.008089
                                                         0.166384      -0.027907
                                                         0.634073      -0.057221
                                                         2.325354       0.000000
                          1       6    5dyz              0.060000      -0.014011
                                                         0.166384      -0.048336
                                                         0.634073      -0.099109
                                                         2.325354       0.000000
                          1       6    5dz2              0.060000      -0.008089
                                                         0.166384      -0.027907
                                                         0.634073      -0.057221
                                                         2.325354       0.000000

                          1       7    5fx3              0.060000       0.000067
                                                         0.166384       0.012645
                                                         0.634073       0.328269
                                                         2.325354       1.687172
                          1       7    5fx2y             0.060000       0.000150
                                                         0.166384       0.028275
                                                         0.634073       0.734031
                                                         2.325354       3.772631
                          1       7    5fx2z             0.060000       0.000150
                                                         0.166384       0.028275
                                                         0.634073       0.734031
                                                         2.325354       3.772631
                          1       7    5fxy2             0.060000       0.000150
                                                         0.166384       0.028275
                                                         0.634073       0.734031
                                                         2.325354       3.772631
                          1       7    5fxyz             0.060000       0.000260
                                                         0.166384       0.048973
                                                         0.634073       1.271379
                                                         2.325354       6.534389
                          1       7    5fxz2             0.060000       0.000150
                                                         0.166384       0.028275
                                                         0.634073       0.734031
                                                         2.325354       3.772631
                          1       7    5fy3              0.060000       0.000067
                                                         0.166384       0.012645
                                                         0.634073       0.328269
                                                         2.325354       1.687172
                          1       7    5fy2z             0.060000       0.000150
                                                         0.166384       0.028275
                                                         0.634073       0.734031
                                                         2.325354       3.772631
                          1       7    5fyz2             0.060000       0.000150
                                                         0.166384       0.028275
                                                         0.634073       0.734031
                                                         2.325354       3.772631
                          1       7    5fz3              0.060000       0.000067
                                                         0.166384       0.012645
                                                         0.634073       0.328269
                                                         2.325354       1.687172

                          2       1    1s                0.191012      -0.002582
                                                         0.666629       0.012902

                          2       2    2s                0.191012       0.079194
                                                         0.666629       0.351708

                          2       3    3s                0.191012       0.300064
                                                         0.666629      -0.436823

     AE Potential information for                                            ALL

       Description:                                       All-electron potential
                                          Krack, Parrinello, PCCP 2, 2105 (2000)

       Gaussian exponent of the core charge distribution:               5.979100
       Electronic configuration (s p d ...):                           4   3   0

  4. Atomic kind: O                                     Number of atoms:       3

     Orbital Basis Set                                        aug-DZVP-MOLOPT-ae

       Number of orbital shell sets:                                           2
       Number of orbital shells:                                              10
       Number of primitive Cartesian functions:                               12
       Number of Cartesian basis functions:                                   35
       Number of spherical basis functions:                                   30
       Norm type:                                                              2

       Normalised Cartesian orbitals:

                        Set   Shell   Orbital            Exponent    Coefficient

                          1       1    2s                0.090000       0.120905
                                                         0.191936      -0.019521
                                                         0.750068       0.059582
                                                         2.907977       0.000000
                                                        16.368686       0.000000

                          1       2    3px               0.090000       0.000000
                                                         0.191936       0.023686
                                                         0.750068       0.626550
                                                         2.907977       2.082711
                                                        16.368686       3.596544
                          1       2    3py               0.090000       0.000000
                                                         0.191936       0.023686
                                                         0.750068       0.626550
                                                         2.907977       2.082711
                                                        16.368686       3.596544
                          1       2    3pz               0.090000       0.000000
                                                         0.191936       0.023686
                                                         0.750068       0.626550
                                                         2.907977       2.082711
                                                        16.368686       3.596544

                          1       3    4px               0.090000       0.000000
                                                         0.191936       0.196557
                                                         0.750068      -0.157257
                                                         2.907977      -0.566756
                                                        16.368686      -1.323495
                          1       3    4py               0.090000       0.000000
                                                         0.191936       0.196557
                                                         0.750068      -0.157257
                                                         2.907977      -0.566756
                                                        16.368686      -1.323495
                          1       3    4pz               0.090000       0.000000
                                                         0.191936       0.196557
                                                         0.750068      -0.157257
                                                         2.907977      -0.566756
                                                        16.368686      -1.323495

                          1       4    5px               0.090000       0.020606
                                                         0.191936       0.124186
                                                         0.750068       0.098287
                                                         2.907977       0.000000
                                                        16.368686       0.000000
                          1       4    5py               0.090000       0.020606
                                                         0.191936       0.124186
                                                         0.750068       0.098287
                                                         2.907977       0.000000
                                                        16.368686       0.000000
                          1       4    5pz               0.090000       0.020606
                                                         0.191936       0.124186
                                                         0.750068       0.098287
                                                         2.907977       0.000000
                                                        16.368686       0.000000

                          1       5    4dx2              0.090000       0.000000
                                                         0.191936       0.030414
                                                         0.750068       0.724129
                                                         2.907977       1.586204
                                                        16.368686       1.487256
                          1       5    4dxy              0.090000       0.000000
                                                         0.191936       0.052678
                                                         0.750068       1.254227
                                                         2.907977       2.747386
                                                        16.368686       2.576002
                          1       5    4dxz              0.090000       0.000000
                                                         0.191936       0.052678
                                                         0.750068       1.254227
                                                         2.907977       2.747386
                                                        16.368686       2.576002
                          1       5    4dy2              0.090000       0.000000
                                                         0.191936       0.030414
                                                         0.750068       0.724129
                                                         2.907977       1.586204
                                                        16.368686       1.487256
                          1       5    4dyz              0.090000       0.000000
                                                         0.191936       0.052678
                                                         0.750068       1.254227
                                                         2.907977       2.747386
                                                        16.368686       2.576002
                          1       5    4dz2              0.090000       0.000000
                                                         0.191936       0.030414
                                                         0.750068       0.724129
                                                         2.907977       1.586204
                                                        16.368686       1.487256

                          1       6    5dx2              0.090000      -0.010181
                                                         0.191936       0.018957
                                                         0.750068       0.933882
                                                         2.907977       0.008471
                                                        16.368686       0.000000
                          1       6    5dxy              0.090000      -0.017634
                                                         0.191936       0.032834
                                                         0.750068       1.617531
                                                         2.907977       0.014671
                                                        16.368686       0.000000
                          1       6    5dxz              0.090000      -0.017634
                                                         0.191936       0.032834
                                                         0.750068       1.617531
                                                         2.907977       0.014671
                                                        16.368686       0.000000
                          1       6    5dy2              0.090000      -0.010181
                                                         0.191936       0.018957
                                                         0.750068       0.933882
                                                         2.907977       0.008471
                                                        16.368686       0.000000
                          1       6    5dyz              0.090000      -0.017634
                                                         0.191936       0.032834
                                                         0.750068       1.617531
                                                         2.907977       0.014671
                                                        16.368686       0.000000
                          1       6    5dz2              0.090000      -0.010181
                                                         0.191936       0.018957
                                                         0.750068       0.933882
                                                         2.907977       0.008471
                                                        16.368686       0.000000

                          1       7    5fx3              0.090000       0.003073
                                                         0.191936       0.017866
                                                         0.750068       0.208981
                                                         2.907977      -1.809714
                                                        16.368686       0.000000
                          1       7    5fx2y             0.090000       0.006871
                                                         0.191936       0.039950
                                                         0.750068       0.467295
                                                         2.907977      -4.046643
                                                        16.368686       0.000000
                          1       7    5fx2z             0.090000       0.006871
                                                         0.191936       0.039950
                                                         0.750068       0.467295
                                                         2.907977      -4.046643
                                                        16.368686       0.000000
                          1       7    5fxy2             0.090000       0.006871
                                                         0.191936       0.039950
                                                         0.750068       0.467295
                                                         2.907977      -4.046643
                                                        16.368686       0.000000
                          1       7    5fxyz             0.090000       0.011901
                                                         0.191936       0.069196
                                                         0.750068       0.809378
                                                         2.907977      -7.008992
                                                        16.368686       0.000000
                          1       7    5fxz2             0.090000       0.006871
                                                         0.191936       0.039950
                                                         0.750068       0.467295
                                                         2.907977      -4.046643
                                                        16.368686       0.000000
                          1       7    5fy3              0.090000       0.003073
                                                         0.191936       0.017866
                                                         0.750068       0.208981
                                                         2.907977      -1.809714
                                                        16.368686       0.000000
                          1       7    5fy2z             0.090000       0.006871
                                                         0.191936       0.039950
                                                         0.750068       0.467295
                                                         2.907977      -4.046643
                                                        16.368686       0.000000
                          1       7    5fyz2             0.090000       0.006871
                                                         0.191936       0.039950
                                                         0.750068       0.467295
                                                         2.907977      -4.046643
                                                        16.368686       0.000000
                          1       7    5fz3              0.090000       0.003073
                                                         0.191936       0.017866
                                                         0.750068       0.208981
                                                         2.907977      -1.809714
                                                        16.368686       0.000000

                          2       1    1s                0.293338      -0.001581
                                                         0.941883       0.076823
                                                         5.946538      -1.128731
                                                        19.692604      -3.542509
                                                        76.928143      -3.538410
                                                       340.903325      -2.616043
                                                      2266.118827      -1.088852

                          2       2    2s                0.293338       0.124568
                                                         0.941883       0.386056
                                                         5.946538       0.132815
                                                        19.692604       0.350657
                                                        76.928143       1.294240
                                                       340.903325      -0.343055
                                                      2266.118827       0.730749

                          2       3    3s                0.293338       0.411906
                                                         0.941883      -0.735854
                                                         5.946538      -0.324434
                                                        19.692604      -0.580898
                                                        76.928143      -3.484318
                                                       340.903325       2.878168
                                                      2266.118827      -6.417666

     RI Auxiliary Basis Set             RI_aug-DZVP-MOLOPT-ae_N_RI_072_s_p_d_f_g

       Number of orbital shell sets:                                          20
       Number of orbital shells:                                              20
       Number of primitive Cartesian functions:                               20
       Number of Cartesian basis functions:                                   91
       Number of spherical basis functions:                                   72
       Norm type:                                                              2

       Normalised Cartesian orbitals:

                        Set   Shell   Orbital            Exponent    Coefficient

                          1       1    1s                0.149663       0.171493

                          2       1   13dx2              0.154035       0.062337
                          2       1   13dxy              0.154035       0.107971
                          2       1   13dxz              0.154035       0.107971
                          2       1   13dy2              0.154035       0.062337
                          2       1   13dyz              0.154035       0.107971
                          2       1   13dz2              0.154035       0.062337

                          3       1    8px               0.183646       0.171363
                          3       1    8py               0.183646       0.171363
                          3       1    8pz               0.183646       0.171363

                          4       1   17fx3              0.375009       0.162012
                          4       1   17fx2y             0.375009       0.362270
                          4       1   17fx2z             0.375009       0.362270
                          4       1   17fxy2             0.375009       0.362270
                          4       1   17fxyz             0.375009       0.627470
                          4       1   17fxz2             0.375009       0.362270
                          4       1   17fy3              0.375009       0.162012
                          4       1   17fy2z             0.375009       0.362270
                          4       1   17fyz2             0.375009       0.362270
                          4       1   17fz3              0.375009       0.162012

                          5       1    2s                0.391216       0.352551

                          6       1   14dx2              0.576365       0.627525
                          6       1   14dxy              0.576365       1.086905
                          6       1   14dxz              0.576365       1.086905
                          6       1   14dy2              0.576365       0.627525
                          6       1   14dyz              0.576365       1.086905
                          6       1   14dz2              0.576365       0.627525

                          7       1    9px               0.681723       0.882978
                          7       1    9py               0.681723       0.882978
                          7       1    9pz               0.681723       0.882978

                          8       1   20gx4              0.710982       0.435559
                          8       1   20gx3y             0.710982       1.152381
                          8       1   20gx3z             0.710982       1.152381
                          8       1   20gx2y2            0.710982       1.487718
                          8       1   20gx2yz            0.710982       2.576803
                          8       1   20gx2z2            0.710982       1.487718
                          8       1   20gxy3             0.710982       1.152381
                          8       1   20gxy2z            0.710982       2.576803
                          8       1   20gxyz2            0.710982       2.576803
                          8       1   20gxz3             0.710982       1.152381
                          8       1   20gy4              0.710982       0.435559
                          8       1   20gy3z             0.710982       1.152381
                          8       1   20gy2z2            0.710982       1.487718
                          8       1   20gyz3             0.710982       1.152381
                          8       1   20gz4              0.710982       0.435559

                          9       1   10px               1.077483       1.564779
                          9       1   10py               1.077483       1.564779
                          9       1   10pz               1.077483       1.564779

                         10       1    3s                1.173203       0.803415

                         11       1   15dx2              1.274843       2.517437
                         11       1   15dxy              1.274843       4.360328
                         11       1   15dxz              1.274843       4.360328
                         11       1   15dy2              1.274843       2.517437
                         11       1   15dyz              1.274843       4.360328
                         11       1   15dz2              1.274843       2.517437

                         12       1   18fx3              1.337264       2.831020
                         12       1   18fx2y             1.337264       6.330353
                         12       1   18fx2z             1.337264       6.330353
                         12       1   18fxy2             1.337264       6.330353
                         12       1   18fxyz             1.337264      10.964493
                         12       1   18fxz2             1.337264       6.330353
                         12       1   18fy3              1.337264       2.831020
                         12       1   18fy2z             1.337264       6.330353
                         12       1   18fyz2             1.337264       6.330353
                         12       1   18fz3              1.337264       2.831020

                         13       1    4s                3.143421       1.682527

                         14       1   11px               3.601750       7.072649
                         14       1   11py               3.601750       7.072649
                         14       1   11pz               3.601750       7.072649

                         15       1   16dx2              4.763207      25.277465
                         15       1   16dxy              4.763207      43.781854
                         15       1   16dxz              4.763207      43.781854
                         15       1   16dy2              4.763207      25.277465
                         15       1   16dyz              4.763207      43.781854
                         15       1   16dz2              4.763207      25.277465

                         16       1   19fx3              5.064165      56.636583
                         16       1   19fx2y             5.064165     126.643249
                         16       1   19fx2z             5.064165     126.643249
                         16       1   19fxy2             5.064165     126.643249
                         16       1   19fxyz             5.064165     219.352541
                         16       1   19fxz2             5.064165     126.643249
                         16       1   19fy3              5.064165      56.636583
                         16       1   19fy2z             5.064165     126.643249
                         16       1   19fyz2             5.064165     126.643249
                         16       1   19fz3              5.064165      56.636583

                         17       1    5s               12.516691       4.742717

                         18       1   12px              19.115095      56.971896
                         18       1   12py              19.115095      56.971896
                         18       1   12pz              19.115095      56.971896

                         19       1    6s               46.942700      12.781627

                         20       1    7s              160.163322      32.087242

       Atomic covalent radius [Angstrom]:                                  0.730

       Atomic van der Waals radius [Angstrom]:                             1.520

     The atoms of this atomic kind are PAW atoms (GAPW):
       Hard Gaussian function radius:                                      1.512
       Rho0 radius:                                                        1.512
       Maximum GTO radius used for PAW projector construction:            24.566

     GAPW Soft Basis Set                                 aug-DZVP-MOLOPT-ae_soft

       Number of orbital shell sets:                                           2
       Number of orbital shells:                                              10
       Number of primitive Cartesian functions:                                6
       Number of Cartesian basis functions:                                   35
       Number of spherical basis functions:                                   30
       Norm type:                                                              2

       Normalised Cartesian orbitals:

                        Set   Shell   Orbital            Exponent    Coefficient

                          1       1    2s                0.090000       0.120905
                                                         0.191936      -0.019521
                                                         0.750068       0.059582
                                                         2.907977       0.000000

                          1       2    3px               0.090000       0.000000
                                                         0.191936       0.023686
                                                         0.750068       0.626550
                                                         2.907977       2.082711
                          1       2    3py               0.090000       0.000000
                                                         0.191936       0.023686
                                                         0.750068       0.626550
                                                         2.907977       2.082711
                          1       2    3pz               0.090000       0.000000
                                                         0.191936       0.023686
                                                         0.750068       0.626550
                                                         2.907977       2.082711

                          1       3    4px               0.090000       0.000000
                                                         0.191936       0.196557
                                                         0.750068      -0.157257
                                                         2.907977      -0.566756
                          1       3    4py               0.090000       0.000000
                                                         0.191936       0.196557
                                                         0.750068      -0.157257
                                                         2.907977      -0.566756
                          1       3    4pz               0.090000       0.000000
                                                         0.191936       0.196557
                                                         0.750068      -0.157257
                                                         2.907977      -0.566756

                          1       4    5px               0.090000       0.020606
                                                         0.191936       0.124186
                                                         0.750068       0.098287
                                                         2.907977       0.000000
                          1       4    5py               0.090000       0.020606
                                                         0.191936       0.124186
                                                         0.750068       0.098287
                                                         2.907977       0.000000
                          1       4    5pz               0.090000       0.020606
                                                         0.191936       0.124186
                                                         0.750068       0.098287
                                                         2.907977       0.000000

                          1       5    4dx2              0.090000       0.000000
                                                         0.191936       0.030414
                                                         0.750068       0.724129
                                                         2.907977       1.586204
                          1       5    4dxy              0.090000       0.000000
                                                         0.191936       0.052678
                                                         0.750068       1.254227
                                                         2.907977       2.747386
                          1       5    4dxz              0.090000       0.000000
                                                         0.191936       0.052678
                                                         0.750068       1.254227
                                                         2.907977       2.747386
                          1       5    4dy2              0.090000       0.000000
                                                         0.191936       0.030414
                                                         0.750068       0.724129
                                                         2.907977       1.586204
                          1       5    4dyz              0.090000       0.000000
                                                         0.191936       0.052678
                                                         0.750068       1.254227
                                                         2.907977       2.747386
                          1       5    4dz2              0.090000       0.000000
                                                         0.191936       0.030414
                                                         0.750068       0.724129
                                                         2.907977       1.586204

                          1       6    5dx2              0.090000      -0.010181
                                                         0.191936       0.018957
                                                         0.750068       0.933882
                                                         2.907977       0.008471
                          1       6    5dxy              0.090000      -0.017634
                                                         0.191936       0.032834
                                                         0.750068       1.617531
                                                         2.907977       0.014671
                          1       6    5dxz              0.090000      -0.017634
                                                         0.191936       0.032834
                                                         0.750068       1.617531
                                                         2.907977       0.014671
                          1       6    5dy2              0.090000      -0.010181
                                                         0.191936       0.018957
                                                         0.750068       0.933882
                                                         2.907977       0.008471
                          1       6    5dyz              0.090000      -0.017634
                                                         0.191936       0.032834
                                                         0.750068       1.617531
                                                         2.907977       0.014671
                          1       6    5dz2              0.090000      -0.010181
                                                         0.191936       0.018957
                                                         0.750068       0.933882
                                                         2.907977       0.008471

                          1       7    5fx3              0.090000       0.003073
                                                         0.191936       0.017866
                                                         0.750068       0.208981
                                                         2.907977      -1.809714
                          1       7    5fx2y             0.090000       0.006871
                                                         0.191936       0.039950
                                                         0.750068       0.467295
                                                         2.907977      -4.046643
                          1       7    5fx2z             0.090000       0.006871
                                                         0.191936       0.039950
                                                         0.750068       0.467295
                                                         2.907977      -4.046643
                          1       7    5fxy2             0.090000       0.006871
                                                         0.191936       0.039950
                                                         0.750068       0.467295
                                                         2.907977      -4.046643
                          1       7    5fxyz             0.090000       0.011901
                                                         0.191936       0.069196
                                                         0.750068       0.809378
                                                         2.907977      -7.008992
                          1       7    5fxz2             0.090000       0.006871
                                                         0.191936       0.039950
                                                         0.750068       0.467295
                                                         2.907977      -4.046643
                          1       7    5fy3              0.090000       0.003073
                                                         0.191936       0.017866
                                                         0.750068       0.208981
                                                         2.907977      -1.809714
                          1       7    5fy2z             0.090000       0.006871
                                                         0.191936       0.039950
                                                         0.750068       0.467295
                                                         2.907977      -4.046643
                          1       7    5fyz2             0.090000       0.006871
                                                         0.191936       0.039950
                                                         0.750068       0.467295
                                                         2.907977      -4.046643
                          1       7    5fz3              0.090000       0.003073
                                                         0.191936       0.017866
                                                         0.750068       0.208981
                                                         2.907977      -1.809714

                          2       1    1s                0.293338      -0.001581
                                                         0.941883       0.076823

                          2       2    2s                0.293338       0.124568
                                                         0.941883       0.386056

                          2       3    3s                0.293338       0.411906
                                                         0.941883      -0.735854

     AE Potential information for                                            ALL

       Description:                                       All-electron potential
                                          Krack, Parrinello, PCCP 2, 2105 (2000)

       Gaussian exponent of the core charge distribution:               8.154466
       Electronic configuration (s p d ...):                           4   4   0


 MOLECULE KIND INFORMATION


 All atoms are their own molecule, skipping detailed information


 TOTAL NUMBERS AND MAXIMUM NUMBERS

  Total number of            - Atomic kinds:                                   4
                             - Atoms:                                         18
                             - Shell sets:                                    29
                             - Shells:                                       145
                             - Primitive Cartesian functions:                174
                             - Cartesian basis functions:                    448
                             - Spherical basis functions:                    393

  Maximum angular momentum of the orbital basis functions:                     3


 MODULE QUICKSTEP: ATOMIC COORDINATES IN ANGSTROM

   Atom Kind Element         X             Y             Z       Z(eff)     Mass
      1    1 H     1     15.137250     12.232888     16.802202   1.0000   1.0079
      2    2 C     6     13.419720     15.631085     14.222090   6.0000  12.0107
      3    1 H     1     15.905389     16.335375     14.154709   1.0000   1.0079
      4    1 H     1     12.587058     14.911929     14.183620   1.0000   1.0079
      5    1 H     1     13.681507     15.921517     13.197798   1.0000   1.0079
      6    3 N     7     14.527858     14.941730     14.861625   7.0000  14.0067
      7    2 C     6     14.203209     13.764923     15.612750   6.0000  12.0107
      8    4 O     8     13.033335     13.382720     15.680322   8.0000  15.9994
      9    2 C     6     15.346563     13.133252     16.228372   6.0000  12.0107
     10    2 C     6     15.797550     15.428519     14.748618   6.0000  12.0107
     11    2 C     6     12.894946     16.866675     14.938227   6.0000  12.0107
     12    4 O     8     12.141981     17.659168     14.417312   8.0000  15.9994
     13    4 O     8     13.340202     16.970516     16.214351   8.0000  15.9994
     14    1 H     1     12.911940     17.767112     16.584363   1.0000   1.0079
     15    2 C     6     16.613296     13.636172     16.105274   6.0000  12.0107
     16    2 C     6     16.858837     14.811408     15.348564   6.0000  12.0107
     17    1 H     1     17.446644     13.128043     16.592393   1.0000   1.0079
     18    1 H     1     17.858019     15.222906     15.236487   1.0000   1.0079



 SCF PARAMETERS         Density guess:                                    ATOMIC
                        --------------------------------------------------------
                        max_scf:                                             500
                        max_scf_history:                                       0
                        max_diis:                                              4
                        --------------------------------------------------------
                        eps_scf:                                        1.00E-06
                        eps_scf_history:                                0.00E+00
                        eps_diis:                                       1.00E-01
                        eps_eigval:                                     1.00E-05
                        --------------------------------------------------------
                        level_shift [a.u.]:                             0.000000
                        added MOs                                       353    0
                        --------------------------------------------------------
                        Mixing method:                            BROYDEN_MIXING
                                                charge density mixing in g-space
                        --------------------------------------------------------
                        No outer SCF

 PW_GRID| Information for grid number                                          1
 PW_GRID| Grid distributed over                                   192 processors
 PW_GRID| Real space group dimensions                                   192    1
 PW_GRID| the grid is blocked:                                                NO
 PW_GRID| Cutoff [a.u.]                                                    250.0
 PW_GRID| spherical cutoff:                                                   NO
 PW_GRID|   Bounds   1           -202     202                Points:         405
 PW_GRID|   Bounds   2           -202     202                Points:         405
 PW_GRID|   Bounds   3           -202     202                Points:         405
 PW_GRID| Volume element (a.u.^3)  0.2743E-02     Volume (a.u.^3)    182205.0337
 PW_GRID| Grid span                                                    FULLSPACE
 PW_GRID|   Distribution                         Average         Max         Min
 PW_GRID|   G-Vectors                           345990.2      346275      345870
 PW_GRID|   G-Rays                                 854.3         855         854
 PW_GRID|   Real Space Points                   345990.2      492075      328050

 PW_GRID| Information for grid number                                          2
 PW_GRID| Number of the reference grid                                         1
 PW_GRID| Grid distributed over                                   192 processors
 PW_GRID| Real space group dimensions                                   192    1
 PW_GRID| the grid is blocked:                                                NO
 PW_GRID| Cutoff [a.u.]                                                     83.3
 PW_GRID| spherical cutoff:                                                   NO
 PW_GRID|   Bounds   1           -120     119                Points:         240
 PW_GRID|   Bounds   2           -120     119                Points:         240
 PW_GRID|   Bounds   3           -120     119                Points:         240
 PW_GRID| Volume element (a.u.^3)  0.1318E-01     Volume (a.u.^3)    182205.0337
 PW_GRID| Grid span                                                    FULLSPACE
 PW_GRID|   Distribution                         Average         Max         Min
 PW_GRID|   G-Vectors                            72000.0       72240       71760
 PW_GRID|   G-Rays                                 300.0         301         299
 PW_GRID|   Real Space Points                    72000.0      115200       57600

 PW_GRID| Information for grid number                                          3
 PW_GRID| Number of the reference grid                                         1
 PW_GRID| Grid distributed over                                   192 processors
 PW_GRID| Real space group dimensions                                    12   16
 PW_GRID| the grid is blocked:                                                NO
 PW_GRID| Cutoff [a.u.]                                                     27.8
 PW_GRID| spherical cutoff:                                                   NO
 PW_GRID|   Bounds   1            -67      67                Points:         135
 PW_GRID|   Bounds   2            -67      67                Points:         135
 PW_GRID|   Bounds   3            -67      67                Points:         135
 PW_GRID| Volume element (a.u.^3)  0.7406E-01     Volume (a.u.^3)    182205.0337
 PW_GRID| Grid span                                                    FULLSPACE
 PW_GRID|   Distribution                         Average         Max         Min
 PW_GRID|   G-Vectors                            12814.5       12960       12690
 PW_GRID|   G-Rays                                  94.9          96          94
 PW_GRID|   Real Space Points                    12814.5       14580       11880

 PW_GRID| Information for grid number                                          4
 PW_GRID| Number of the reference grid                                         1
 PW_GRID| Grid distributed over                                   192 processors
 PW_GRID| Real space group dimensions                                    12   16
 PW_GRID| the grid is blocked:                                                NO
 PW_GRID| Cutoff [a.u.]                                                      9.3
 PW_GRID| spherical cutoff:                                                   NO
 PW_GRID|   Bounds   1            -40      39                Points:          80
 PW_GRID|   Bounds   2            -40      39                Points:          80
 PW_GRID|   Bounds   3            -40      39                Points:          80
 PW_GRID| Volume element (a.u.^3)  0.3559         Volume (a.u.^3)    182205.0337
 PW_GRID| Grid span                                                    FULLSPACE
 PW_GRID|   Distribution                         Average         Max         Min
 PW_GRID|   G-Vectors                             2666.7        2800        2560
 PW_GRID|   G-Rays                                  33.3          35          32
 PW_GRID|   Real Space Points                     2666.7        2800        2400

 POISSON| Solver                                                         WAVELET
 POISSON| Wavelet| Scaling function                                           40
 POISSON| Periodicity                                                       NONE

 RS_GRID| Information for grid number                                          1
 RS_GRID|   Bounds   1           -202     202                Points:         405
 RS_GRID|   Bounds   2           -202     202                Points:         405
 RS_GRID|   Bounds   3           -202     202                Points:         405
 RS_GRID| Real space distribution over                                  4 groups
 RS_GRID| Real space distribution along direction                              1
 RS_GRID| Border size                                                         37
 RS_GRID| Real space distribution over                                  6 groups
 RS_GRID| Real space distribution along direction                              2
 RS_GRID| Border size                                                         37
 RS_GRID| Real space distribution over                                  8 groups
 RS_GRID| Real space distribution along direction                              3
 RS_GRID| Border size                                                         37
 RS_GRID|   Distribution                         Average         Max         Min
 RS_GRID|   Planes                                 175.2         176         175
 RS_GRID|   Distribution                         Average         Max         Min
 RS_GRID|   Planes                                 141.5         142         141
 RS_GRID|   Distribution                         Average         Max         Min
 RS_GRID|   Planes                                 124.6         125         124

 RS_GRID| Information for grid number                                          2
 RS_GRID|   Bounds   1           -120     119                Points:         240
 RS_GRID|   Bounds   2           -120     119                Points:         240
 RS_GRID|   Bounds   3           -120     119                Points:         240
 RS_GRID| Real space distribution over                                  4 groups
 RS_GRID| Real space distribution along direction                              1
 RS_GRID| Border size                                                         38
 RS_GRID| Real space distribution over                                  6 groups
 RS_GRID| Real space distribution along direction                              2
 RS_GRID| Border size                                                         38
 RS_GRID| Real space distribution over                                  8 groups
 RS_GRID| Real space distribution along direction                              3
 RS_GRID| Border size                                                         38
 RS_GRID|   Distribution                         Average         Max         Min
 RS_GRID|   Planes                                 136.0         136         136
 RS_GRID|   Distribution                         Average         Max         Min
 RS_GRID|   Planes                                 116.0         116         116
 RS_GRID|   Distribution                         Average         Max         Min
 RS_GRID|   Planes                                 106.0         106         106

 RS_GRID| Information for grid number                                          3
 RS_GRID|   Bounds   1            -67      67                Points:         135
 RS_GRID|   Bounds   2            -67      67                Points:         135
 RS_GRID|   Bounds   3            -67      67                Points:         135
 RS_GRID| Real space fully replicated
 RS_GRID| Group size                                                           1

 RS_GRID| Information for grid number                                          4
 RS_GRID|   Bounds   1            -40      39                Points:          80
 RS_GRID|   Bounds   2            -40      39                Points:          80
 RS_GRID|   Bounds   3            -40      39                Points:          80
 RS_GRID| Real space fully replicated
 RS_GRID| Group size                                                           1

  HFX_INFO| Replica ID:                                                        1
  HFX_INFO| FRACTION:                                               0.2500000000
  HFX_INFO| Interaction Potential:                                       COULOMB
  HFX_INFO| EPS_SCHWARZ:                                                 1.0E-10
  HFX_INFO| EPS_SCHWARZ_FORCES                                           1.0E-08
  HFX_INFO| EPS_STORAGE_SCALING:                                         1.0E+00
  HFX_INFO| NBINS:                                                            64
  HFX_INFO| BLOCK_SIZE:                                                        1
  HFX_INFO| Number of periodic shells considered:                           NONE
  HFX_INFO| Number of periodic cells considered:                            NONE


 OVERLAP MATRIX CONDITION NUMBER
 1-Norm Condition Number (Estimate)
   CN : |A|*|A^-1|:  3.699E+001 *  3.458E+004   = 1.279E+006  Log(1-CN):  6.1069
 1-Norm and 2-Norm Condition Numbers using Diagonalization
   CN : |A|*|A^-1|:  3.699E+001 *  3.553E+004   = 1.314E+006  Log(1-CN):  6.1186
   CN : max/min ev:  1.137E+001 /  1.266E-004   = 8.981E+004  Log(2-CN):  4.9533

 Extrapolation method: initial_guess

 Atomic guess: The first density matrix is obtained in terms of atomic orbitals
               and electronic configurations assigned to each atomic kind

 Guess for atomic kind: H

 Electronic structure
    Total number of core electrons                                          0.00
    Total number of valence electrons                                       1.00
    Total number of electrons                                               1.00
    Multiplicity                                                   not specified
    S      1.00


 *******************************************************************************
                  Iteration          Convergence                     Energy [au]
 *******************************************************************************
                          1        0.100530E-01                  -0.443985550189
                          2        0.945329E-03                  -0.444090029920
                          3        0.103025E-03                  -0.444092117382
                          4        0.802727E-07                  -0.444092129626

 Energy components [Hartree]           Total Energy ::           -0.444092129626
                                        Band Energy ::           -0.233486998571
                                     Kinetic Energy ::            0.420413643923
                                   Potential Energy ::           -0.864505773549
                                      Virial (-V/T) ::            2.056321877382
                                        Core Energy ::           -0.493965249450
                                          XC Energy ::           -0.230662915809
                                     Coulomb Energy ::            0.280536035634

 Orbital energies  State     L     Occupation   Energy[a.u.]          Energy[eV]

                       1     0          1.000      -0.233487           -6.353504


 Total Electron Density at R=0:                                         0.246678

 Guess for atomic kind: C

 Electronic structure
    Total number of core electrons                                          0.00
    Total number of valence electrons                                       6.00
    Total number of electrons                                               6.00
    Multiplicity                                                   not specified
    S      2.00  2.00
    P      2.00


 *******************************************************************************
                  Iteration          Convergence                     Energy [au]
 *******************************************************************************
                          1        0.133902                     -37.363061759844
                          2        0.102325                     -37.368472442707
                          3        0.860737E-03                 -37.376215693871
                          4        0.849047E-04                 -37.376216293501
                          5        0.219397E-06                 -37.376216298714

 Energy components [Hartree]           Total Energy ::          -37.376216298714
                                        Band Energy ::          -21.245708131867
                                     Kinetic Energy ::           37.464666877769
                                   Potential Energy ::          -74.840883176484
                                      Virial (-V/T) ::            1.997639093407
                                        Core Energy ::          -50.271057779086
                                          XC Energy ::           -4.736056292831
                                     Coulomb Energy ::           17.630897773203

 Orbital energies  State     L     Occupation   Energy[a.u.]          Energy[eV]

                       1     0          2.000      -9.941022         -270.508975
                       2     0          2.000      -0.490185          -13.338601

                       1     1          2.000      -0.191647           -5.214984


 Total Electron Density at R=0:                                       116.283880

 Guess for atomic kind: N

 Electronic structure
    Total number of core electrons                                          0.00
    Total number of valence electrons                                       7.00
    Total number of electrons                                               7.00
    Multiplicity                                                   not specified
    S      2.00  2.00
    P      3.00


 *******************************************************************************
                  Iteration          Convergence                     Energy [au]
 *******************************************************************************
                          1        0.369390                     -53.855844969821
                          2        0.273078                     -53.870170065147
                          3        0.611788E-02                 -53.916370559561
                          4        0.258022E-03                 -53.916388709621
                          5        0.100264E-04                 -53.916388753242
                          6        0.664221E-07                 -53.916388753301

 Energy components [Hartree]           Total Energy ::          -53.916388753301
                                        Band Energy ::          -30.277671893433
                                     Kinetic Energy ::           53.943449639882
                                   Potential Energy ::         -107.859838393183
                                      Virial (-V/T) ::            1.999498347125
                                        Core Energy ::          -73.381511064535
                                          XC Energy ::           -6.114835262346
                                     Coulomb Energy ::           25.579957573581

 Orbital energies  State     L     Occupation   Energy[a.u.]          Energy[eV]

                       1     0          2.000     -14.050793         -382.341534
                       2     0          2.000      -0.664480          -18.081407

                       1     1          3.000      -0.282375           -7.683823


 Total Electron Density at R=0:                                       189.469012

 Guess for atomic kind: O

 Electronic structure
    Total number of core electrons                                          0.00
    Total number of valence electrons                                       8.00
    Total number of electrons                                               8.00
    Multiplicity                                                   not specified
    S      2.00  2.00
    P      4.00


 *******************************************************************************
                  Iteration          Convergence                     Energy [au]
 *******************************************************************************
                          1        0.848674                     -74.203659346590
                          2        0.676538                     -74.224350300929
                          3        0.118146E-01                 -74.325384117638
                          4        0.875023E-03                 -74.325411956579
                          5        0.262407E-04                 -74.325412100097
                          6        0.953985E-07                 -74.325412100225

 Energy components [Hartree]           Total Energy ::          -74.325412100225
                                        Band Energy ::          -40.703914598336
                                     Kinetic Energy ::           74.466117831459
                                   Potential Energy ::         -148.791529931684
                                      Virial (-V/T) ::            1.998110473121
                                        Core Energy ::         -102.666843544964
                                          XC Energy ::           -7.743421966388
                                     Coulomb Energy ::           36.084853411128

 Orbital energies  State     L     Occupation   Energy[a.u.]          Energy[eV]

                       1     0          2.000     -18.799663         -511.564844
                       2     0          2.000      -0.852501          -23.197720

                       1     1          4.000      -0.349897           -9.521179


 Total Electron Density at R=0:                                       292.094851
 Re-scaling the density matrix to get the right number of electrons
                  # Electrons              Trace(P)               Scaling factor
                           80                80.000                        1.000

 Number of electrons:                                                         80
 Number of occupied orbitals:                                                 40
 Number of molecular orbitals:                                               393

 Number of orbital functions:                                                393
 Number of independent orbital functions:                                    393


 SCF WAVEFUNCTION OPTIMIZATION

  Step     Update method      Time    Convergence         Total energy    Change
  ------------------------------------------------------------------------------

  HFX_MEM_INFO| Est. max. program size before HFX [MiB]:                     771
  HFX_MEM_INFO| Number of cart. primitive ERI's calculated:         324952352978
  HFX_MEM_INFO| Number of sph. ERI's calculated:                      3429289386
  HFX_MEM_INFO| Number of sph. ERI's stored in-core:                  3429289386
  HFX_MEM_INFO| Number of sph. ERI's stored on disk:                           0
  HFX_MEM_INFO| Number of sph. ERI's calculated on the fly:                    0
  HFX_MEM_INFO| Total memory consumption ERI's RAM [MiB]:                  11999
  HFX_MEM_INFO| Whereof max-vals [MiB]:                                        6
  HFX_MEM_INFO| Total compression factor ERI's RAM:                         2.18
  HFX_MEM_INFO| Total memory consumption ERI's disk [MiB]:                     0
  HFX_MEM_INFO| Total compression factor ERI's disk:                        0.00
  HFX_MEM_INFO| Size of density/Fock matrix [MiB]:                             0
  HFX_MEM_INFO| Size of buffers [MiB]:                                        16
  HFX_MEM_INFO| Est. max. program size after HFX  [MiB]:                    1337

     1 NoMix/Diag. 0.10E+00   21.3     4.02971713      -553.0543118240 -5.53E+02
     2 Broy./Diag. 0.10E+00    1.4     0.24587229      -541.5806203880  1.15E+01
     3 Broy./Diag. 0.10E+00    1.7     0.04188836      -541.3589244988  2.22E-01
     4 Broy./Diag. 0.10E+00    1.4     0.19105031      -543.6846427796 -2.33E+00
     5 Broy./Diag. 0.10E+00    1.7     0.06537236      -546.5052260737 -2.82E+00
     6 Broy./Diag. 0.10E+00    1.8     0.02877250      -547.4752775994 -9.70E-01
     7 Broy./Diag. 0.10E+00    1.8     0.15304711      -548.3586406980 -8.83E-01
     8 Broy./Diag. 0.10E+00    1.9     0.04757061      -549.4372892440 -1.08E+00
     9 Broy./Diag. 0.10E+00    1.8     0.02673140      -549.9210330978 -4.84E-01
    10 Broy./Diag. 0.10E+00    1.9     0.04427024      -549.6546712029  2.66E-01
    11 Broy./Diag. 0.10E+00    1.7     0.00767985      -549.5694229549  8.52E-02
    12 Broy./Diag. 0.10E+00    1.6     0.06526132      -549.7835301581 -2.14E-01
    13 Broy./Diag. 0.10E+00    1.7     0.01308181      -549.9853583544 -2.02E-01
    14 Broy./Diag. 0.10E+00    1.7     0.01646644      -550.1597677031 -1.74E-01
    15 Broy./Diag. 0.10E+00    1.6     0.01450623      -550.1511829061  8.58E-03
    16 Broy./Diag. 0.10E+00    1.8     0.01748469      -550.1030103496  4.82E-02
    17 Broy./Diag. 0.10E+00    1.8     0.00593053      -550.2048609119 -1.02E-01
    18 Broy./Diag. 0.10E+00    1.7     0.00803265      -550.2423883372 -3.75E-02
    19 Broy./Diag. 0.10E+00    1.8     0.01286009      -550.2366094394  5.78E-03
    20 Broy./Diag. 0.10E+00    1.5     0.00427656      -550.2789751362 -4.24E-02
    21 Broy./Diag. 0.10E+00    1.8     0.00658615      -550.3134270139 -3.45E-02
    22 Broy./Diag. 0.10E+00    1.9     0.00662464      -550.3072191609  6.21E-03
    23 Broy./Diag. 0.10E+00    1.8     0.00146551      -550.2784497218  2.88E-02
    24 Broy./Diag. 0.10E+00    2.0     0.00343614      -550.2782990797  1.51E-04
    25 Broy./Diag. 0.10E+00    1.8     0.00359030      -550.2892160347 -1.09E-02
    26 Broy./Diag. 0.10E+00    1.8     0.00264618      -550.2846786104  4.54E-03
    27 Broy./Diag. 0.10E+00    1.7     0.00141397      -550.2811161526  3.56E-03
    28 Broy./Diag. 0.10E+00    1.6     0.00071427      -550.2884563014 -7.34E-03
    29 Broy./Diag. 0.10E+00    1.8     0.00254539      -550.2920448795 -3.59E-03
    30 Broy./Diag. 0.10E+00    1.8     0.00066905      -550.2930502080 -1.01E-03
    31 Broy./Diag. 0.10E+00    1.6     0.00088983      -550.3011495120 -8.10E-03
    32 Broy./Diag. 0.10E+00    1.7     0.00103683      -550.3029674228 -1.82E-03
    33 Broy./Diag. 0.10E+00    1.8     0.00040189      -550.2972922327  5.68E-03
    34 Broy./Diag. 0.10E+00    1.6     0.00055232      -550.2948154317  2.48E-03
    35 Broy./Diag. 0.10E+00    1.7     0.00035154      -550.2935172455  1.30E-03
    36 Broy./Diag. 0.10E+00    1.5     0.00034782      -550.2908014341  2.72E-03
    37 Broy./Diag. 0.10E+00    1.8     0.00047305      -550.2900858423  7.16E-04
    38 Broy./Diag. 0.10E+00    1.9     0.00024775      -550.2899410547  1.45E-04
    39 Broy./Diag. 0.10E+00    1.7     0.00018134      -550.2887013940  1.24E-03
    40 Broy./Diag. 0.10E+00    1.8     0.00018106      -550.2891407797 -4.39E-04
    41 Broy./Diag. 0.10E+00    2.0     0.00019421      -550.2893761743 -2.35E-04
    42 Broy./Diag. 0.10E+00    1.6     0.00031048      -550.2892380896  1.38E-04
    43 Broy./Diag. 0.10E+00    1.8     0.00009494      -550.2901108294 -8.73E-04
    44 Broy./Diag. 0.10E+00    1.6     0.00022031      -550.2899172424  1.94E-04
    45 Broy./Diag. 0.10E+00    1.8     0.00023795      -550.2893571979  5.60E-04
    46 Broy./Diag. 0.10E+00    1.8     0.00048950      -550.2895455123 -1.88E-04
    47 Broy./Diag. 0.10E+00    1.7     0.00013280      -550.2896302457 -8.47E-05
    48 Broy./Diag. 0.10E+00    1.7     0.00009762      -550.2898488373 -2.19E-04
    49 Broy./Diag. 0.10E+00    1.7     0.00014769      -550.2903275301 -4.79E-04
    50 Broy./Diag. 0.10E+00    1.6     0.00009451      -550.2901809396  1.47E-04
    51 Broy./Diag. 0.10E+00    1.7     0.00021747      -550.2899951950  1.86E-04
    52 Broy./Diag. 0.10E+00    1.6     0.00035633      -550.2899668376  2.84E-05
    53 Broy./Diag. 0.10E+00    1.8     0.00014194      -550.2900208451 -5.40E-05
    54 Broy./Diag. 0.10E+00    1.8     0.00005350      -550.2901917883 -1.71E-04
    55 Broy./Diag. 0.10E+00    1.6     0.00002542      -550.2902174860 -2.57E-05
    56 Broy./Diag. 0.10E+00    1.7     0.00001568      -550.2901637345  5.38E-05
    57 Broy./Diag. 0.10E+00    1.8     0.00000747      -550.2902205421 -5.68E-05
    58 Broy./Diag. 0.10E+00    1.6     0.00003830      -550.2902182746  2.27E-06
    59 Broy./Diag. 0.10E+00    1.8     0.00001336      -550.2901653820  5.29E-05
    60 Broy./Diag. 0.10E+00    1.6     0.00002567      -550.2902114199 -4.60E-05
    61 Broy./Diag. 0.10E+00    1.9     0.00001215      -550.2902379607 -2.65E-05
    62 Broy./Diag. 0.10E+00    1.9     0.00000546      -550.2902120059  2.60E-05
    63 Broy./Diag. 0.10E+00    1.7     0.00000472      -550.2902303202 -1.83E-05
    64 Broy./Diag. 0.10E+00    1.8     0.00001398      -550.2902296368  6.83E-07
    65 Broy./Diag. 0.10E+00    1.8     0.00000800      -550.2901918526  3.78E-05
    66 Broy./Diag. 0.10E+00    1.7     0.00001102      -550.2901840084  7.84E-06
    67 Broy./Diag. 0.10E+00    1.7     0.00000709      -550.2901964486 -1.24E-05
    68 Broy./Diag. 0.10E+00    1.6     0.00000570      -550.2901869160  9.53E-06
    69 Broy./Diag. 0.10E+00    1.8     0.00000142      -550.2901696764  1.72E-05
    70 Broy./Diag. 0.10E+00    1.9     0.00000473      -550.2901718302 -2.15E-06
    71 Broy./Diag. 0.10E+00    1.6     0.00000234      -550.2901750454 -3.22E-06
    72 Broy./Diag. 0.10E+00    1.8     0.00000092      -550.2901659167  9.13E-06

  *** SCF run converged in    72 steps ***


  Electronic density on regular grids:        -60.2751112894       19.7248887106
  Core density on regular grids:               80.0000000000       -0.0000000000
  Hard and soft densities (Lebedev):         -551.5303054497     -531.8054173389
  Total Rho_soft + Rho1_hard - Rho1_soft      -79.9999994002
  Total charge density (r-space):               0.0000005998
  Total Rho_soft + Rho0_soft (g-space):        -0.0000000016

  Overlap energy of the core charge distribution:               0.00001403254024
  Self energy of the core charge distribution:               -480.19248147223448
  Core Hamiltonian energy:                                    -74.45439292310833
  Hartree energy:                                             167.38430700093875
  Exchange-correlation energy:                                -22.62031436006936
  Hartree-Fock Exchange energy:                               -17.45266597584535

  GAPW| Exc from hard and soft atomic rho1:                   -32.40508036127429
  GAPW| local Eh = 1 center integrals:                        -90.54955185769683

  Total energy:                                              -550.29016591674952

 !-----------------------------------------------------------------------------!
                     Mulliken Population Analysis

 #  Atom  Element  Kind  Atomic population                           Net charge
       1     H        1          0.849663                              0.150337
       2     C        2          5.674382                              0.325618
       3     H        1          0.741068                              0.258932
       4     H        1          0.518094                              0.481906
       5     H        1          0.752012                              0.247988
       6     N        3          7.721515                             -0.721515
       7     C        2          4.924696                              1.075304
       8     O        4          9.762920                             -1.762920
       9     C        2          5.943123                              0.056877
      10     C        2          5.604775                              0.395225
      11     C        2          4.624349                              1.375651
      12     O        4          9.222640                             -1.222640
      13     O        4          9.746975                             -1.746975
      14     H        1         -0.043037                              1.043037
      15     C        2          6.081532                             -0.081532
      16     C        2          6.116054                             -0.116054
      17     H        1          0.878285                              0.121715
      18     H        1          0.880954                              0.119046
 # Total charge                             80.000000                 -0.000000

 !-----------------------------------------------------------------------------!

 !-----------------------------------------------------------------------------!
                           Hirshfeld Charges

  #Atom  Element  Kind  Ref Charge     Population                    Net charge
      1       H      1       1.000          0.499                         0.501
      2       C      2       6.000          6.697                        -0.697
      3       H      1       1.000          0.503                         0.497
      4       H      1       1.000          0.489                         0.511
      5       H      1       1.000          0.505                         0.495
      6       N      3       7.000          7.144                        -0.144
      7       C      2       6.000          5.671                         0.329
      8       O      4       8.000          8.556                        -0.556
      9       C      2       6.000          6.488                        -0.488
     10       C      2       6.000          6.355                        -0.355
     11       C      2       6.000          5.575                         0.425
     12       O      4       8.000          8.465                        -0.465
     13       O      4       8.000          8.677                        -0.677
     14       H      1       1.000          0.391                         0.609
     15       C      2       6.000          6.440                        -0.440
     16       C      2       6.000          6.519                        -0.519
     17       H      1       1.000          0.505                         0.495
     18       H      1       1.000          0.501                         0.499

  Total Charge                                                            0.021
 !-----------------------------------------------------------------------------!
  
 -------------------------------------------------------------------------------
 -                                                                             -
 -                          BANDSTRUCTURE CALCULATION                          -
 -                                                                             -
 -------------------------------------------------------------------------------
  
 Number of occupied molecular orbitals (MOs) = Number of occupied bands       40
 Number of unoccupied (= virtual) MOs = Number of unoccupied bands           353
 Number of Gaussian basis functions for MOs                                  393
 K-point mesh for the density of states (DOS) and the self-energy      1   1   1
  
 -------------------------------------------------------------------------------
 -                                                                             -
 -                                GW CALCULATION                               -
 -                                                                             -
 -------------------------------------------------------------------------------
  
 Input: Number of time/freq. points                                           30
 Input: ω_max for fitting Σ(iω) (eV)                                        10.0
 Input: Filter threshold for sparse tensor operations                    1.0E-11
 Input: Apply Hedin shift                                                      F
  
 Number of auxiliary Gaussian basis functions for χ, ε, W                    879
 Cutoff radius for the truncated Coulomb operator in Σ^x:               2645.9 Å
 Cutoff radius for the truncated Coulomb operator in RI metric:            9.0 Å
 Regularization parameter of RI                                          1.0E-02
 Regularization parameter of minimax grids                               1.0E-06
 Lattice sum size for V(k):                                                    3
  
 K-point mesh 1 for χ, ε, W                                            1   1   1
 K-point mesh 2 for χ, ε, W (for k-point extrapolation of W)           1   1   1
 Approximate the k-point extrapolation                                         F
 Group size for tensor operations                                            192
 
 Computed 3-center integrals (µν|P), execution time                        0.3 s
 Percentage of non-zero (µν|P)                                         100.000 %
 Max. distance between µ,ν in non-zero (µν|P)                              7.3 A
 Required memory if storing all 3-center integrals (µν|P)                   1 GB
 
 Number of i and j atoms in M_λνP(τ), N_νλQ(τ):                              127
 Number of inner loop atoms for µ in M_λνP = sum_µ (µν|P) G_µλ                18
 
 SCF direct band gap (eV)                                                   5.04
 Max. SCF eigval diff. (eV)                                             56906.41
 E-Range for minimax grid                                               11286.29
 Number of Padé parameters for analytic continuation:                          5
 
 Computed χ(iτ,k=0) for time point            1 / 30,    Execution time    0.5 s
 Computed χ(iτ,k=0) for time point            2 / 30,    Execution time    0.4 s
 Computed χ(iτ,k=0) for time point            3 / 30,    Execution time    0.4 s
 Computed χ(iτ,k=0) for time point            4 / 30,    Execution time    0.4 s
 Computed χ(iτ,k=0) for time point            5 / 30,    Execution time    0.4 s
 Computed χ(iτ,k=0) for time point            6 / 30,    Execution time    0.3 s
 Computed χ(iτ,k=0) for time point            7 / 30,    Execution time    0.4 s
 Computed χ(iτ,k=0) for time point            8 / 30,    Execution time    0.4 s
 Computed χ(iτ,k=0) for time point            9 / 30,    Execution time    0.3 s
 Computed χ(iτ,k=0) for time point           10 / 30,    Execution time    0.3 s
 Computed χ(iτ,k=0) for time point           11 / 30,    Execution time    0.3 s
 Computed χ(iτ,k=0) for time point           12 / 30,    Execution time    0.4 s
 Computed χ(iτ,k=0) for time point           13 / 30,    Execution time    0.3 s
 Computed χ(iτ,k=0) for time point           14 / 30,    Execution time    0.3 s
 Computed χ(iτ,k=0) for time point           15 / 30,    Execution time    0.3 s
 Computed χ(iτ,k=0) for time point           16 / 30,    Execution time    0.3 s
 Computed χ(iτ,k=0) for time point           17 / 30,    Execution time    0.3 s
 Computed χ(iτ,k=0) for time point           18 / 30,    Execution time    0.3 s
 Computed χ(iτ,k=0) for time point           19 / 30,    Execution time    0.3 s
 Computed χ(iτ,k=0) for time point           20 / 30,    Execution time    0.3 s
 Computed χ(iτ,k=0) for time point           21 / 30,    Execution time    0.3 s
 Computed χ(iτ,k=0) for time point           22 / 30,    Execution time    0.3 s
 Computed χ(iτ,k=0) for time point           23 / 30,    Execution time    0.3 s
 Computed χ(iτ,k=0) for time point           24 / 30,    Execution time    0.3 s
 Computed χ(iτ,k=0) for time point           25 / 30,    Execution time    0.3 s
 Computed χ(iτ,k=0) for time point           26 / 30,    Execution time    0.3 s
 Computed χ(iτ,k=0) for time point           27 / 30,    Execution time    0.4 s
 Computed χ(iτ,k=0) for time point           28 / 30,    Execution time    0.4 s
 Computed χ(iτ,k=0) for time point           29 / 30,    Execution time    0.3 s
 Computed χ(iτ,k=0) for time point           30 / 30,    Execution time    0.3 s
 
 Computed W(iτ,k) for k-point batch           1 /  1,    Execution time    4.5 s
 
 Computed Σ^x(k=0),                                      Execution time    0.4 s
 
 Computed Σ^c(iτ,k=0) for time point          1 / 30,    Execution time    0.5 s
 Computed Σ^c(iτ,k=0) for time point          2 / 30,    Execution time    0.5 s
 Computed Σ^c(iτ,k=0) for time point          3 / 30,    Execution time    0.5 s
 Computed Σ^c(iτ,k=0) for time point          4 / 30,    Execution time    0.5 s
 Computed Σ^c(iτ,k=0) for time point          5 / 30,    Execution time    0.5 s
 Computed Σ^c(iτ,k=0) for time point          6 / 30,    Execution time    0.5 s
 Computed Σ^c(iτ,k=0) for time point          7 / 30,    Execution time    0.5 s
 Computed Σ^c(iτ,k=0) for time point          8 / 30,    Execution time    0.5 s
 Computed Σ^c(iτ,k=0) for time point          9 / 30,    Execution time    0.5 s
 Computed Σ^c(iτ,k=0) for time point         10 / 30,    Execution time    0.5 s
 Computed Σ^c(iτ,k=0) for time point         11 / 30,    Execution time    0.5 s
 Computed Σ^c(iτ,k=0) for time point         12 / 30,    Execution time    0.5 s
 Computed Σ^c(iτ,k=0) for time point         13 / 30,    Execution time    0.6 s
 Computed Σ^c(iτ,k=0) for time point         14 / 30,    Execution time    0.5 s
 Computed Σ^c(iτ,k=0) for time point         15 / 30,    Execution time    0.5 s
 Computed Σ^c(iτ,k=0) for time point         16 / 30,    Execution time    0.5 s
 Computed Σ^c(iτ,k=0) for time point         17 / 30,    Execution time    0.5 s
 Computed Σ^c(iτ,k=0) for time point         18 / 30,    Execution time    0.5 s
 Computed Σ^c(iτ,k=0) for time point         19 / 30,    Execution time    0.5 s
 Computed Σ^c(iτ,k=0) for time point         20 / 30,    Execution time    0.5 s
 Computed Σ^c(iτ,k=0) for time point         21 / 30,    Execution time    0.5 s
 Computed Σ^c(iτ,k=0) for time point         22 / 30,    Execution time    0.5 s
 Computed Σ^c(iτ,k=0) for time point         23 / 30,    Execution time    0.5 s
 Computed Σ^c(iτ,k=0) for time point         24 / 30,    Execution time    0.5 s
 Computed Σ^c(iτ,k=0) for time point         25 / 30,    Execution time    0.5 s
 Computed Σ^c(iτ,k=0) for time point         26 / 30,    Execution time    0.5 s
 Computed Σ^c(iτ,k=0) for time point         27 / 30,    Execution time    0.5 s
 Computed Σ^c(iτ,k=0) for time point         28 / 30,    Execution time    0.5 s
 Computed Σ^c(iτ,k=0) for time point         29 / 30,    Execution time    0.5 s
 Computed Σ^c(iτ,k=0) for time point         30 / 30,    Execution time    0.5 s
 
 Sparsity of Σ^c(iτ,k=0): Percentage of skipped atom pairs:                0.0 %

 
 SCF valence band maximum (eV):                                           -6.693
 SCF conduction band minimum (eV):                                        -1.651
 SCF indirect band gap (eV):                                               5.042
 SCF direct band gap (eV):                                                 5.042
 
 G0W0 valence band maximum (eV):                                          -8.090
 G0W0 conduction band minimum (eV):                                        0.241
 G0W0 indirect band gap (eV):                                              8.331
 G0W0 direct band gap (eV):                                                8.331
 
 Hartree-Fock with SCF orbitals valence band maximum (eV):                -8.422
 Hartree-Fock with SCF orbitals conduction band minimum (eV)               1.451
 Hartree-Fock with SCF orbitals indirect band gap (eV):                    9.873
 Hartree-Fock with SCF orbitals direct band gap (eV):                      9.873

 ENERGY| Total FORCE_EVAL ( QS ) energy [hartree]           -550.290165916749515

 -------------------------------------------------------------------------------
 -                                                                             -
 -                                DBCSR STATISTICS                             -
 -                                                                             -
 -------------------------------------------------------------------------------
 COUNTER                                    TOTAL       BLAS       SMM       ACC
 flops     9 x     9 x     9              2939328     100.0%      0.0%      0.0%     
 flops     9 x    30 x     9             13296960     100.0%      0.0%      0.0%     
 flops    30 x     9 x     9             13646880     100.0%      0.0%      0.0%     
 flops    30 x    30 x     9             76982400     100.0%      0.0%      0.0%     
 flops     9 x     9 x    32            125411328     100.0%      0.0%      0.0%     
 flops     9 x    30 x    32            567336960     100.0%      0.0%      0.0%     
 flops    30 x     9 x    32            582266880     100.0%      0.0%      0.0%     
 flops    30 x    30 x    32           3284582400     100.0%      0.0%      0.0%     
 flops inhomo. stacks                           0       0.0%      0.0%      0.0%
 flops total                         4.666463E+09     100.0%      0.0%      0.0%
 flops max/rank                    152.798400E+06     100.0%      0.0%      0.0%
 matmuls inhomo. stacks                         0       0.0%      0.0%      0.0%
 matmuls total                             160056     100.0%      0.0%      0.0%
 number of processed stacks                157248     100.0%      0.0%      0.0%
 average stack size                                     1.0       0.0       0.0
 marketing flops                   889.626432E+06
 -------------------------------------------------------------------------------
 # multiplications                             72
 max memory usage/rank              19.149775E+09
 # max total images/rank                        3
 # max 3D layers                                1
 # MPI messages exchanged                  608256
 MPI messages size (bytes):
  total size                         2.668879E+09
  min size                           0.000000E+00
  max size                          23.040000E+03
  average size                       4.387756E+03
 MPI breakdown and total messages size (bytes):
             size <=      128              339624                        0
       128 < size <=     8192              149400                761166720
      8192 < size <=    32768              119232               1907712000
     32768 < size <=   131072                   0                        0
    131072 < size <=  4194304                   0                        0
   4194304 < size <= 16777216                   0                        0
  16777216 < size                               0                        0
 -------------------------------------------------------------------------------

 *** WARNING in dbcsr_mm.F:301 :: Using a non-square number of MPI ranks ***
 *** might lead to poor performance. Used ranks: 192 Suggested: 196 400  ***

 -------------------------------------------------------------------------------
 -                                                                             -
 -                      DBCSR MESSAGE PASSING PERFORMANCE                      -
 -                                                                             -
 -------------------------------------------------------------------------------
 ROUTINE             CALLS      AVE VOLUME [Bytes]
 MP_Bcast                9                     12.
 MP_Allreduce          468                      9.
 MP_Alltoall          5438                 102243.
 MP_ISend             6912                   3415.
 MP_IRecv             6912                   3046.
 -------------------------------------------------------------------------------

 -------------------------------------------------------------------------------
 -                                                                             -
 -                                DBM STATISTICS                               -
 -                                                                             -
 -------------------------------------------------------------------------------
    M  x    N  x    K                                          COUNT     PERCENT
    ?  x    ?  x    ?                                         104752      49.86%
   ??  x  ???  x   ??                                          20088       9.56%
   ??  x   ??  x  ???                                          17280       8.23%
 >999  x    ?  x   ??                                          13310       6.34%
 >999  x   ??  x   ??                                          13310       6.34%
 >999  x    ?  x    ?                                           8470       4.03%
 >999  x   ??  x    ?                                           8470       4.03%
    ?  x    ?  x >999                                           6100       2.90%
    ?  x   ??  x >999                                           6100       2.90%
   ??  x    ?  x >999                                           6100       2.90%
   ??  x   ??  x >999                                           6100       2.90%
 -------------------------------------------------------------------------------

 -------------------------------------------------------------------------------
 -                                                                             -
 -                                GRID STATISTICS                              -
 -                                                                             -
 -------------------------------------------------------------------------------
 LP    KERNEL             BACKEND                              COUNT     PERCENT
 3     collocate ortho    CPU                                  12191      13.98%
 3     integrate ortho    CPU                                  12191      13.98%
 4     collocate ortho    CPU                                   8687       9.96%
 4     integrate ortho    CPU                                   8687       9.96%
 6     collocate ortho    CPU                                   7592       8.71%
 6     integrate ortho    CPU                                   7592       8.71%
 1     collocate ortho    CPU                                   6351       7.28%
 1     integrate ortho    CPU                                   6351       7.28%
 0     collocate ortho    CPU                                   4672       5.36%
 0     integrate ortho    CPU                                   4672       5.36%
 2     collocate ortho    CPU                                   2774       3.18%
 2     integrate ortho    CPU                                   2774       3.18%
 2     collocate general  CPU                                   1314       1.51%
 2     integrate general  CPU                                   1314       1.51%
 0     collocate general  CPU                                     18       0.02%
 0     integrate general  CPU                                     18       0.02%
 -------------------------------------------------------------------------------

 -------------------------------------------------------------------------------
 -                                                                             -
 -                          OFFLOAD MEMPOOL STATISTICS                         -
 -                                                                             -
 -------------------------------------------------------------------------------
 Memory consumption                Number of allocations  Used [MiB]  Size [MiB]
 Host                                                144          53         132
 -------------------------------------------------------------------------------

 MEMORY| Estimated peak process memory [MiB]                                1705

 -------------------------------------------------------------------------------
 ----                             MULTIGRID INFO                            ----
 -------------------------------------------------------------------------------
 count for grid        1:       21730343          cutoff [a.u.]          250.00
 count for grid        2:        4724750          cutoff [a.u.]           83.33
 count for grid        3:        3107399          cutoff [a.u.]           27.78
 count for grid        4:        1061269          cutoff [a.u.]            9.26
 total gridlevel count  :       30623761

 -------------------------------------------------------------------------------
 -                                                                             -
 -                         MESSAGE PASSING PERFORMANCE                         -
 -                                                                             -
 -------------------------------------------------------------------------------

 ROUTINE             CALLS      AVE VOLUME [Bytes]
 MP_Group             2961
 MP_Bcast             8605                 131790.
 MP_Allreduce        27299                   9836.
 MP_Sync              3890
 MP_Alltoall          4186                6232199.
 MP_SendRecv         27886                  69520.
 MP_ISendRecv        56154                  45278.
 MP_Wait             84873
 MP_comm_split        1620
 MP_ISend            32919                 335132.
 MP_IRecv            35197                 313911.
 -------------------------------------------------------------------------------


 -------------------------------------------------------------------------------
 -                                                                             -
 -                           R E F E R E N C E S                               -
 -                                                                             -
 -------------------------------------------------------------------------------
 
 CP2K version 2025.2 (Development Version), the CP2K developers group (2025).
 CP2K is freely available from https://www.cp2k.org/ .
 
 M. Graml, K. Zollner, D. Hernangómez-Pérez, P. E. Faria Junior, J. Wilhelm.
 J. Chem. Theory Comput. 20, 2202-2208 (2024).
 Low-scaling GW algorithm applied to twisted transition-metal dichalcogenide 
 heterobilayers.
 https://doi.org/10.1021/acs.jctc.3c01230

 T. D. Kuehne, M. Iannuzzi, M. Del Ben, V. V. Rybkin, P. Seewald, F. Stein, T. 
 Laino, R. Z. Khaliullin, O. Schuett, F. Schiffmann, D. Golze, J. Wilhelm, S. 
 Chulkov, M. H. Bani-Hashemian, V. Weber, U. Borstnik, M. Taillefumier, A. S. 
 Jakobovits, A. Lazzaro, H. Pabst, T. Mueller, R. Schade, M. Guidon, S. 
 Andermatt, N. Holmberg, G. K. Schenter, A. Hehn, A. Bussy, F. Belleflamme, G. 
 Tabacchi, A. Gloess, M. Lass, I. Bethune, C. J. Mundy, C. Plessl, M. Watkins, 
 J. VandeVondele, M. Krack, J. Hutter.
 J. Chem. Phys. 152, 194103 (2020).
 CP2K: An electronic structure and molecular dynamics software package - 
 Quickstep: Efficient and accurate electronic structure calculations.
 https://doi.org/10.1063/5.0007045

 O. Schuett, P. Messmer, J. Hutter, J. VandeVondele.
 Electronic Structure Calculations on Graphics Processing Units, 173-190 (2016).
 GPU-Accelerated Sparse Matrix-Matrix Multiplication for Linear Scaling Density 
 Functional Theory.
 https://doi.org/10.1002/9781118670712.ch8

 A. Heinecke, G. Henry, M. Hutchinson, H. Pabst.
 Proceedings of Intl. Supercomputing Conference, 981-991 (2016).
 LIBXSMM: Accelerating Small Matrix Multiplications by Runtime Code Generation.
 https://doi.org/10.1109/SC.2016.83

 J. Hutter, M. Iannuzzi, F. Schiffmann, J. VandeVondele.
 WIREs Comput Mol Sci. 4, 15-25 (2014).
 CP2K: atomistic simulations of condensed matter systems.
 https://doi.org/10.1002/wcms.1159

 U. Borstnik, J. VandeVondele, V. Weber, J. Hutter.
 Parallel Comput. 40, 47-58 (2014).
 Sparse matrix multiplication: The distributed block-compressed sparse row 
 library.
 https://doi.org/10.1016/j.parco.2014.03.012

 A. Marek, V. Blum, R. Johanni, V. Havu, B. Lang, T. Auckenthaler, A. Heinecke, 
 H. Bungartz, H. Lederer.
 J. Phys. Condens. Matter 26, 213201 (2014).
 The ELPA library: scalable parallel eigenvalue solutions for electronic 
 structure theory and computational science.
 https://doi.org/10.1088/0953-8984/26/21/213201

 M. Guidon, J. Hutter, J. VandeVondele.
 J. Chem. Theory Comput. 5, 3010-3021 (2009).
 Robust Periodic Hartree-Fock Exchange for Large-Scale Simulations Using 
 Gaussian Basis Sets.
 https://doi.org/10.1021/ct900494g

 M. Guidon, F. Schiffmann, J. Hutter, J. VandeVondele.
 J. Chem. Phys. 128, 214104 (2008).
 Ab initio molecular dynamics using hybrid density functionals.
 https://doi.org/10.1063/1.2931945

 L. Genovese, T. Deutsch, S. Goedecker.
 J. Chem. Phys. 127, 054704 (2007).
 Efficient and accurate three-dimensional Poisson solver for surface problems.
 https://doi.org/10.1063/1.2754685

 J. VandeVondele, J. Hutter.
 J. Chem. Phys. 127, 114105 (2007).
 Gaussian basis sets for accurate calculations on molecular systems in gas and 
 condensed phases.
 https://doi.org/10.1063/1.2770708

 L. Genovese, T. Deutsch, A. Neelov, S. Goedecker, G. Beylkin.
 J. Chem. Phys. 125, 074105 (2006).
 Efficient solution of Poisson's equation with free boundary conditions.
 https://doi.org/10.1063/1.2335442

 M. Frigo, S. G. Johnson.
 Proc. IEEE 93, 216-231 (2005).
 The design and implementation of FFTW3.
 https://doi.org/10.1109/JPROC.2004.840301

 M. Krack, M. Parrinello.
 Phys. Chem. Chem. Phys. 2, 2105-2112 (2000).
 All-electron ab-initio molecular dynamics.
 https://doi.org/10.1039/b001167n

 G. Lippert, J. Hutter, M. Parrinello.
 Theor. Chem. Acc. 103, 124-140 (1999).
 The Gaussian and augmented-plane-wave density functional method for ab initio 
 molecular dynamics simulations.
 https://doi.org/10.1007/s002140050523

 J. P. Perdew, K. Burke, M. Ernzerhof.
 Phys. Rev. Lett. 77, 3865-3868 (1996).
 Generalized gradient approximation made simple.
 https://doi.org/10.1103/PhysRevLett.77.3865


 -------------------------------------------------------------------------------
 -                                                                             -
 -                                T I M I N G                                  -
 -                                                                             -
 -------------------------------------------------------------------------------
 SUBROUTINE                       CALLS  ASD         SELF TIME        TOTAL TIME
                                MAXIMUM       AVERAGE  MAXIMUM  AVERAGE  MAXIMUM
 CP2K                                 1  1.0    0.012    0.023  181.497  181.505
 qs_energies                          1  2.0    0.000    0.000  181.161  181.172
 scf_env_do_scf                       1  3.0    0.000    0.000  144.407  144.414
 scf_env_do_scf_inner_loop           72  4.0    0.001    0.003  144.407  144.414
 qs_ks_build_kohn_sham_matrix        73  7.0    0.010    0.012  128.313  128.331
 qs_ks_update_qs_env                 72  5.0    0.001    0.001  126.844  126.861
 rebuild_ks_matrix                   72  6.0    0.000    0.000  126.837  126.853
 pw_poisson_solve                    73  8.0    0.132    0.223   75.074   75.091
 mp_alltoall_d11v                  2794 10.6   42.944   43.748   42.944   43.748
 qs_energies_properties               1  3.0    0.000    0.000   33.525   33.533
 post_scf_bandstructure               1  4.0    0.000    0.000   33.525   33.533
 gw                                   1  5.0    0.000    0.000   33.375   33.379
 gw_calc_large_cell_Gamma             1  6.0    0.000    0.000   31.006   31.029
 ps_wavelet_solve                    73  9.0    2.043    2.791   26.705   27.073
 fft_wrap_pw1pw2                   1524 10.0    0.016    0.021   25.891   26.656
 fft3d_ps                          1524 12.0    2.786    3.929   24.404   25.245
 fft_wrap_pw1pw2_250               1086 11.1    0.410    0.497   24.275   24.996
 mp_alltoall_z22v                  1524 14.0   20.538   21.676   20.538   21.676
 mp_alltoall_d54                     73 10.0   17.920   19.751   17.920   19.751
 hfx_ks_matrix                       73  8.0    0.001    0.001   19.171   19.202
 integrate_four_center               73  9.0    1.440    2.226   19.167   19.200
 dbt_total                          699  9.0    0.003    0.004   17.218   17.220
 dbt_contract                       243  9.9    0.008    0.015   15.682   15.688
 dbt_tas_multiply                   486 12.4    0.001    0.001   15.467   15.469
 dbt_tas_total                      486 13.4    0.044    0.060   15.457   15.460
 get_Sigma_c                          1  7.0    0.001    0.001   14.749   14.750
 qs_rho_update_rho_low               73  5.0    0.001    0.001   13.562   13.563
 calculate_rho_elec                  73  6.0    0.049    0.073   13.123   13.125
 integrate_four_center_main          73 10.0    0.031    0.126   12.046   12.897
 integrate_four_center_bin         5439 11.0   12.015   12.840   12.015   12.840
 qs_vxc_create                       73  8.0    0.001    0.001   11.846   11.969
 xc_vxc_pw_create                    72  9.0    0.074    0.104   11.845   11.968
 yz_to_x                            581 13.2    0.208    0.246   10.334   11.340
 x_to_yz                            651 12.9    0.332    0.503   10.696   10.889
 sum_up_and_integrate                73  8.0    0.001    0.001   10.431   10.687
 integrate_v_rspace                  73  9.0    0.002    0.002   10.409   10.665
 mp_waitany                       24052 11.5    7.986   10.651    7.986   10.651
 get_mat_chi_Gamma_tau                1  7.0    0.000    0.001   10.580   10.602
 potential_pw2rs                     73 10.0    0.005    0.006    9.987   10.007
 mp_sync                           3890 12.1    7.171    9.982    7.171    9.982
 transfer_pw2rs                     366 10.6    0.003    0.004    9.232    9.778
 xc_pw_derive                       432 11.0    0.002    0.003    9.420    9.562
 density_rs2pw                       73  7.0    0.002    0.003    8.560    9.352
 contract_to_Sigma                   61  8.0    0.001    0.001    8.836    8.836
 mp_alltoall_d45                     74 10.0    8.192    8.782    8.192    8.782
 transfer_pw2rs_250                 147 11.0    0.648    0.805    5.274    7.516
 compute_3c_integrals               152  8.6    0.002    0.003    7.203    7.205
 xc_pw_divergence                    72 10.0    0.001    0.001    6.184    6.296
 build_3c_integrals                 157  9.6    4.576    5.525    5.046    6.283
 dbt_tas_dbm                        486 14.4    0.001    0.001    5.799    5.803
 xc_rho_set_and_dset_create          72 10.0    0.078    0.094    5.403    5.687
 dbm_multiply                       486 16.4    4.409    5.399    4.409    5.399
 transfer_pw2rs_90                   73 12.0    0.116    0.151    3.153    5.391
 transfer_rs2pw                     366  8.4    0.006    0.010    4.580    5.367
 compute_3c_and_contract_W           31  8.0    0.000    0.000    5.113    5.114
 prepare_gapw_den                    73  8.0    0.001    0.001    4.878    4.946
 grid_collocate_task_list            73  7.0    4.353    4.825    4.353    4.825
 get_W_MIC                            1  7.0    0.000    0.000    4.811    4.811
 compute_W_MIC                        1  8.0    0.000    0.000    4.811    4.811
 mp_waitall_1                     69061 12.0    2.254    4.550    2.254    4.550
 compute_fm_W_MIC_freq_j             30  9.0    0.000    0.000    4.456    4.456
 integrate_vhg0_rspace               73  8.0    0.075    0.113    3.093    3.664
 cp_cfm_power                        30 10.0    0.000    0.001    3.603    3.614
 cp_cfm_heevd                        32 10.8    0.000    0.000    3.547    3.567
 cp_cfm_heevd_base                   32 11.8    3.547    3.567    3.547    3.567
 gspace_mixing                       71  5.0    0.048    0.072    3.538    3.540
 dbm_redistribute                   912 14.1    2.668    3.423    2.668    3.423
 transfer_rs2pw_250                 147 10.0    0.738    0.818    2.602    3.396
 put_rho0_on_grid                    73  9.0    0.054    0.086    3.190    3.258
 mp_sum_d                          7525  6.9    2.549    3.229    2.549    3.229
 calc_screening_functions             1 10.0    2.502    2.597    2.822    2.921
 convert_to_new_pgrid              1458 14.4    0.762    1.070    2.454    2.869
 G_times_3c                          60  8.0    0.000    0.003    2.843    2.846
 dbt_tas_mm_2                       182 15.2    0.000    0.001    2.711    2.712
 mp_isend_dm3                      2932 11.5    0.809    2.571    0.809    2.571
 dbt_tas_create_split              1618 15.2    0.004    0.004    2.296    2.408
 dbt_tas_create_split_rows_or_c    1618 16.2    0.004    0.005    2.292    2.404
 create_and_init_bs_env_for_gw        1  6.0    0.000    0.000    2.368    2.392
 qs_scf_new_mos                      72  5.0    0.001    0.001    2.361    2.372
 cp_fm_diag_elpa                     78  7.1    0.000    0.000    2.355    2.361
 cp_fm_diag_elpa_base                78  8.1    2.280    2.327    2.331    2.332
 init_scf_run                         1  3.0    0.000    0.000    2.279    2.279
 eigensolver_symm                    72  6.0    0.005    0.006    2.132    2.135
 cp2k_distribution_to_z_slices       73  9.0    0.140    0.173    1.798    2.019
 scf_env_initial_rho_setup            1  4.0    0.000    0.000    1.961    2.004
 broyden_mixing                      71  6.0    1.766    1.826    1.837    1.889
 mp_sum_dm                         4013  7.7    1.672    1.877    1.672    1.877
 dbt_tas_estimate_result_nze        243 12.9    0.117    0.180    1.813    1.813
 pw_poisson_rebuild                  73  9.0    0.000    0.000    1.580    1.614
 ps_wavelet_create                    1 10.0    0.000    0.000    1.580    1.614
 RS_z_slice_distribution              1 11.0    0.102    0.111    1.580    1.614
 dbt_tas_distribution_new          1774 14.6    0.593    0.624    1.533    1.579
 mp_sum_dv                        12129  8.7    1.524    1.567    1.524    1.567
 dbt_tas_mm_3N                       62 15.5    0.000    0.000    1.381    1.564
 calculate_rho_atom                 292  9.0    0.232    1.537    0.232    1.537
 compute_V_xc                         1  7.0    0.000    0.000    1.502    1.504
 reshape_mm_compatible              486 14.4    0.006    0.007    1.408    1.463
 change_split                       729 14.9    0.002    0.004    1.381    1.437
 transfer_rs2pw_90                   73  9.0    0.149    0.213    1.256    1.355
 fft_wrap_pw1pw2_90                 146 10.5    0.015    0.022    1.104    1.338
 calculate_vxc_atom                  73  8.0    0.024    0.201    1.332    1.333
 abc_contract_xsmm               124640 10.6    0.251    1.278    0.251    1.278
 reshape_mm_small                   486 14.4    0.026    0.028    1.221    1.276
 mp_sum_l                          3070 13.8    0.785    1.163    0.785    1.163
 mp_bcast_i                        2211 13.1    1.154    1.157    1.154    1.157
 dbt_copy                           456 10.1    0.005    0.008    0.835    1.150
 fm_to_local_tensor                 152  8.0    0.002    0.002    1.101    1.105
 parallel_gemm_cfm                  283 10.4    0.000    0.000    1.058    1.088
 parallel_gemm_cfm_cosma            283 11.4    1.058    1.088    1.058    1.088
 gaVxcgb_GC                         288  9.0    0.021    1.067    0.021    1.067
 mp_irecv_dm3                      2932 11.5    0.091    1.057    0.091    1.057
 parallel_gemm_fm_cosma             328  8.3    1.001    1.056    1.001    1.056
 transfer_pw2rs_30                   73 12.0    0.159    0.233    0.624    1.013
 dbt_tas_reshape                    638 14.5    0.007    0.023    0.742    0.916
 qs_energies_init_hamiltonians        1  3.0    0.000    0.000    0.910    0.910
 build_core_hamiltonian_matrix        1  4.0    0.000    0.000    0.889    0.889
 overlap_condnum                      1  5.0    0.000    0.000    0.887    0.889
 xc_functional_eval                 648 10.8    0.001    0.001    0.493    0.850
 pbe_lda_eval                       648 11.8    0.493    0.849    0.493    0.849
 dbm_reserve_blocks                2921 15.9    0.514    0.834    0.514    0.834
 dbt_tas_reserve_blocks_index      2435 15.0    0.002    0.003    0.509    0.830
 mp_waitall_2                      2978 16.0    0.648    0.820    0.648    0.820
 dbt_reshape                        274 10.9    0.191    0.294    0.601    0.794
 compute_cfm_W_ikp_freq_j            30 10.0    0.001    0.002    0.778    0.785
 dbt_tas_copy                       486 13.8    0.196    0.343    0.478    0.761
 transfer_rs2pw_30                   73  9.0    0.300    0.330    0.604    0.698
 dbt_tas_mm_1N                      120 15.5    0.000    0.000    0.456    0.674
 rs_grid_zero                       367 11.2    0.515    0.660    0.515    0.660
 dbt_tas_mm_3T                      122 15.5    0.000    0.000    0.451    0.636
 grid_integrate_task_list            73 10.0    0.075    0.625    0.075    0.625
 rs_gather_matrices                  73 10.0    0.002    0.048    0.346    0.617
 mp_comm_dup                       1379 17.6    0.495    0.615    0.496    0.616
 mp_bcast_dm                       2629  9.0    0.598    0.603    0.598    0.603
 powell_optimize                 569297 11.0    0.571    0.589    0.571    0.589
 calc_pair_dist_radii                 1 10.0    0.299    0.309    0.549    0.569
 setup_time_and_frequency_minim       1  7.0    0.000    0.000    0.523    0.549
 pw_derive                          651 11.3    0.457    0.544    0.457    0.544
 pw_copy                           1090 10.6    0.447    0.533    0.447    0.533
 update_ks_atom                      73  8.0    0.025    0.044    0.509    0.530
 arnoldi_conjugate_gradient           5  6.0    0.008    0.009    0.528    0.528
 dbt_tas_communicate_buffer        1124 16.5    0.011    0.018    0.416    0.522
 copy_dbcsr_to_fm                   266  8.4    0.002    0.003    0.487    0.521
 mp_comm_split_direct              1620 17.2    0.519    0.521    0.519    0.521
 dbt_create_matrix                  152  9.0    0.001    0.001    0.481    0.492
 mp_alltoall_i                     1917 14.5    0.449    0.484    0.449    0.484
 write_matrix                        91  8.0    0.000    0.000    0.366    0.476
 dbt_tas_replicate                  486 14.4    0.036    0.050    0.404    0.474
 dbt_tas_reserve_blocks_templat     972 14.4    0.002    0.006    0.287    0.470
 mp_sendrecv_dv                   27886 10.0    0.366    0.458    0.366    0.458
 pw_gather_p                        727 11.8    0.372    0.457    0.372    0.457
 G_occ_vir                          121  8.0    0.001    0.001    0.431    0.456
 compute_QP_energies                  1  7.0    0.000    0.000    0.449    0.453
 dbcsr_complete_redistribute        562  9.5    0.012    0.016    0.415    0.451
 calculate_rho_atom_coeff            73  6.0    0.035    0.058    0.438    0.438
 dbt_distribution_new_expert        316 10.5    0.002    0.002    0.434    0.435
 mp_alltoall_z11v                   292 13.5    0.388    0.429    0.388    0.429
 dbt_communicate_buffer             274 11.9    0.002    0.003    0.291    0.429
 fm_write                           121  9.0    0.003    0.065    0.285    0.421
 get_Sigma_x                          1  7.0    0.000    0.000    0.417    0.417
 compute_Sigma_x                      1  8.0    0.000    0.000    0.417    0.417
 cp_fm_power                          3  8.7    0.001    0.001    0.412    0.416
 to_ikp_and_mo                       62  8.0    0.000    0.001    0.389    0.389
 mp_cart_create                    3233 14.8    0.347    0.383    0.348    0.385
 pw_scatter_p                       797 12.1    0.330    0.373    0.330    0.373
 fm_Gamma_ao_to_cfm_ikp_mo           62  9.0    0.000    0.000    0.358    0.371
 cp_fm_write_unformatted            125  9.9    0.282    0.332    0.290    0.365
 fft_wrap_pw1pw2_30                 146 10.5    0.002    0.002    0.318    0.360
 pw_integral_ab_c1d_c1d_gs           73  9.0    0.093    0.107    0.207    0.347
 mp_max_i                          1021  6.7    0.255    0.347    0.255    0.347
 integrate_four_center_getP          73 10.0    0.012    0.015    0.322    0.341
 mp_irecv_dv                      36794 12.7    0.031    0.335    0.031    0.335
 mp_isend_dv                      38948 12.7    0.219    0.335    0.219    0.335
 pw_poisson_set                      74  9.0    0.001    0.002    0.302    0.320
 dbcsr_sym_matrix_vector_mult      3945  7.0    0.018    0.019    0.296    0.318
 Vh_1c_gg_integrals                  73  8.0    0.007    0.201    0.237    0.302
 check_sparsity_3c                    1  7.0    0.000    0.000    0.293    0.293
 multiply_fm_W_MIC_time_with_Mi       2  9.0    0.000    0.000    0.287    0.287
 dbt_reserve_blocks_index           825 12.3    0.001    0.002    0.172    0.281
 dbt_tas_reshape_buffer_fill        638 15.5    0.177    0.280    0.177    0.280
 pw_copy_to_array                   727 11.8    0.217    0.278    0.217    0.278
 mp_alltoall_i22                    834 10.5    0.246    0.277    0.246    0.277
 yz_to_xz                           146 14.0    0.006    0.031    0.241    0.272
 dbt_tas_reshape_buffer_obtain      638 15.5    0.126    0.170    0.187    0.253
 dbt_tas_replicate_communicate_     304 15.5    0.002    0.003    0.183    0.243
 dbt_tas_reshape_alltoall           638 15.5    0.001    0.001    0.230    0.235
 offload_free_buffer                 81  8.4    0.063    0.228    0.063    0.228
 dbm_add                            486 14.4    0.126    0.210    0.126    0.210
 fft_wrap_pw1pw2_10                 146 10.5    0.001    0.001    0.178    0.201
 pw_copy_from_array                 797 12.1    0.123    0.200    0.123    0.200
 transfer_pw2rs_10                   73 12.0    0.043    0.053    0.177    0.196
 dbt_tas_reshape_communicate_bu     638 15.5    0.005    0.007    0.139    0.196
 dbcsr_rep_row_to_rep_col_vec      3945  8.0    0.006    0.008    0.088    0.193
 get_l_sq_wghts_cos_tf_w_to_t         1  8.0    0.170    0.191    0.171    0.192
 get_l_sq_wghts_cos_tf_t_to_w         1  8.0    0.177    0.188    0.177    0.188
 dbt_tas_merge                      182 14.2    0.025    0.036    0.151    0.185
 dbcsr_desymmetrize_deep            272  9.4    0.004    0.004    0.161    0.183
 pw_axpy                            725  9.3    0.154    0.180    0.154    0.180
 qs_init_subsys                       1  2.0    0.001    0.001    0.180    0.180
 mp_cart_sub                        550 10.4    0.178    0.179    0.178    0.179
 get_l_sq_wghts_sin_tf_t_to_w         1  8.0    0.175    0.178    0.175    0.178
 dbt_reserve_blocks_index_array     516 12.0    0.001    0.001    0.099    0.176
 integrate_four_center_load          73 10.0    0.000    0.000    0.117    0.176
 hfx_load_balance                     1 11.0    0.000    0.000    0.117    0.176
 xz_to_yz                           146 11.0    0.004    0.009    0.159    0.175
 qs_env_setup                         1  3.0    0.000    0.000    0.171    0.173
 qs_env_rebuild_pw_env                2  3.5    0.000    0.000    0.171    0.173
 pw_env_rebuild                       1  5.0    0.000    0.000    0.171    0.173
 calculate_rho0_atom                292  9.0    0.163    0.171    0.163    0.171
 integrate_four_center_dist_KS       73 10.0    0.012    0.015    0.163    0.163
 hfx_load_balance_range               1 12.0    0.000    0.000    0.104    0.162
 cp_cfm_cholesky_decompose           35 10.7    0.154    0.162    0.154    0.162
 dbt_tas_replicate_alltoall         304 15.5    0.000    0.000    0.125    0.156
 pw_grid_setup                        4  6.0    0.000    0.000    0.148    0.150
 pw_grid_setup_internal               4  7.0    0.001    0.001    0.148    0.150
 cp_fm_symm                          72  7.0    0.134    0.146    0.134    0.146
 calculate_dm_sparse                 72  6.0    0.000    0.000    0.131    0.137
 cp_dbcsr_plus_fm_fm_t               72  7.0    0.001    0.001    0.130    0.137
 dbt_tas_merge_communicate_buff     182 15.2    0.001    0.002    0.103    0.133
 dbcsr_col_vec_to_rep_row          3945  8.0    0.008    0.010    0.098    0.132
 mp_rank_compare                   1524 13.0    0.125    0.131    0.125    0.131
 pw_zero                            434 10.3    0.116    0.130    0.116    0.130
 cp_cfm_cholesky_invert              31 11.0    0.124    0.129    0.124    0.129
 transfer_rs2pw_10                   73  9.0    0.050    0.058    0.113    0.121
 dbt_crop                           212 11.0    0.036    0.063    0.068    0.120
 create_qs_kind_set                   1  2.0    0.000    0.000    0.112    0.112
 read_qs_kind                         4  3.0    0.021    0.046    0.112    0.112
 alloc_block_3c                     157 10.6    0.004    0.006    0.080    0.112
 dbcsr_multiply_generic              72  8.0    0.002    0.002    0.106    0.110
 cp_cfm_geeig                         2  7.0    0.000    0.000    0.107    0.107
 copy_fm_to_dbcsr                   296  8.5    0.001    0.001    0.094    0.107
 build_3c_integrals_put_dbcsr      3900 10.6    0.023    0.096    0.023    0.096
 dbcsr_add_d                       6873  7.5    0.002    0.002    0.022    0.093
 parser_read_line                 20690  4.0    0.002    0.002    0.091    0.092
 dbcsr_add_anytype                 6873  8.5    0.004    0.013    0.020    0.091
 parser_read_line_low                33  5.0    0.001    0.012    0.089    0.090
 dbt_pgrid_create_expert            320 11.5    0.001    0.001    0.088    0.090
 broadcast_input_information         33  6.0    0.003    0.003    0.088    0.090
 compute_fm_chi_Gamma_freq           30 10.0    0.000    0.000    0.071    0.085
 dbt_create_new                     158 10.0    0.001    0.001    0.075    0.084
 cube_transpose_1                   146 14.0    0.002    0.047    0.024    0.083
 mp_alltoall_i11v                  1958 10.5    0.034    0.081    0.034    0.081
 create_and_init_bs_env               1  5.0    0.000    0.000    0.078    0.078
 dos_pdos_ldos                        1  5.0    0.000    0.000    0.072    0.077
 dbcsr_dot                          145  8.0    0.001    0.001    0.033    0.076
 diagonalize_ks_matrix                1  6.0    0.000    0.000    0.073    0.073
 cp_fm_geeig_canon                    1  7.0    0.000    0.000    0.073    0.073
 calculate_first_density_matrix       1  5.0    0.000    0.000    0.028    0.070
 calculate_atomic_block_dm            1  6.0    0.001    0.001    0.028    0.070
 dbt_copy_nocomm                     30 10.0    0.024    0.044    0.042    0.068
 cube_transpose_2                   146 11.0    0.002    0.002    0.029    0.068
 fill_fm_Sigma_c_Gamma_time           1  8.0    0.000    0.000    0.067    0.067
 dbcsr_finalize                    9557 11.2    0.006    0.020    0.025    0.067
 cp_fm_uplo_to_full                  81  9.1    0.041    0.066    0.041    0.066
 global_matrix_to_local_matrix      152  9.0    0.001    0.002    0.052    0.066
 mp_sum_i                           648 14.2    0.055    0.063    0.055    0.063
 mp_isendrecv_dv                  55772 12.0    0.022    0.061    0.022    0.061
 mp_send_dv                         125 10.9    0.008    0.061    0.008    0.061
 mp_bcast_b_src                     150  7.6    0.018    0.060    0.018    0.060
 pw_grid_remap                        4  8.0    0.001    0.001    0.058    0.059
 dbt_tas_create_new                2345 14.5    0.010    0.059    0.010    0.059
 mp_sum_im3                           6  9.5    0.057    0.058    0.057    0.058
 dbt_nd_mp_comm                     152 10.0    0.000    0.000    0.055    0.057
 rs_scatter_matrices                 73  7.0    0.001    0.001    0.016    0.056
 vxc_of_r_new                       576  9.0    0.000    0.008    0.001    0.055
 mp_bcast_i_src                     132  7.0    0.048    0.051    0.048    0.051
 dbcsr_copy                       16406  7.6    0.014    0.039    0.026    0.050
 make_m2s                           144  9.0    0.002    0.002    0.048    0.050
 mp_bcast_dv                       3945  9.0    0.031    0.049    0.031    0.049
 mp_comm_free                      6833 13.6    0.043    0.049    0.043    0.049
 dbt_tas_mp_comm                    243 12.9    0.002    0.002    0.046    0.047
 compute_MinvVsqrt_Vsqrt              1  9.0    0.000    0.000    0.041    0.047
 send_sizes_1                       152 10.0    0.000    0.000    0.039    0.046
 multiply_cannon                     72  9.0    0.004    0.005    0.041    0.045
 local_dbt_to_global_mat             91  8.0    0.000    0.001    0.034    0.040
 scf_post_calculation_gpw             1  3.0    0.000    0.000    0.040    0.040
 write_available_results              1  4.0    0.000    0.000    0.040    0.040
 write_mo_free_results                1  5.0    0.001    0.002    0.040    0.040
 mp_sum_im                           11  8.0    0.039    0.040    0.039    0.040
 make_images                        144 10.0    0.002    0.002    0.037    0.039
 scale_and_distribute               146 10.0    0.027    0.038    0.027    0.038
 mp_bcast_am_src                     33  7.0    0.033    0.035    0.035    0.037
 dbcsr_iterator_start             51887  9.0    0.018    0.027    0.023    0.034
 dbt_create_template                860  9.9    0.006    0.033    0.006    0.033
 multiply_cannon_loop                72 10.0    0.003    0.003    0.029    0.033
 make_images_sizes                  144 11.0    0.000    0.000    0.029    0.032
 mp_alltoall_i44                    144 12.0    0.029    0.032    0.029    0.032
 mp_recv_dv                        3180 10.9    0.000    0.032    0.000    0.032
 hybrid_alltoall_any                416 11.0    0.002    0.002    0.012    0.031
 dbcsr_merge_all                   8039 12.3    0.010    0.025    0.013    0.031
 pw_grid_sort                         4  8.0    0.021    0.021    0.029    0.031
 check_for_restart_files              1  7.0    0.027    0.030    0.027    0.030
 cp_fm_redistribute_start            78  8.1    0.000    0.000    0.023    0.030
 create_3c_t                          3  8.0    0.000    0.000    0.027    0.029
 dbt_reserve_blocks_template         30 11.0    0.000    0.000    0.018    0.026
 create_tensors                       1  7.0    0.000    0.000    0.020    0.025
 local_matrix_to_global_matrix       91  9.0    0.000    0.000    0.017    0.025
 RI_2c_integral_mat                   4  9.8    0.000    0.000    0.023    0.024
 dbcsr_create_new                 19334  8.8    0.014    0.018    0.018    0.023
 mp_sum_iv                           31  7.5    0.021    0.023    0.021    0.023
 dbm_filter                         982 13.5    0.003    0.021    0.003    0.021
 compute_proj_mo_on_kind              1  6.0    0.000    0.000    0.021    0.021
 dbcsr_iterator_stop              51887  9.0    0.013    0.017    0.016    0.021
 multiply_cannon_metrocomm3        1728 11.0    0.002    0.002    0.014    0.021
 rs_grid_create                      79  8.8    0.000    0.001    0.002    0.021
 pw_grid_distribute                   4  8.0    0.004    0.004    0.020    0.020
 dbcsr_filter_anytype               717  9.8    0.001    0.002    0.007    0.020
 qs_env_update_s_mstruct              1  4.0    0.000    0.000    0.014    0.020
 qs_create_task_list                  1  5.0    0.000    0.000    0.014    0.020
 offload_create_buffer               81  9.7    0.001    0.020    0.001    0.020
 generate_qs_task_list                1  6.0    0.000    0.000    0.014    0.020
 hirshfeld_integration                1  6.0    0.000    0.003    0.020    0.020
 distribute_tasks                     1  7.0    0.000    0.000    0.014    0.020
 dbt_tas_merge_alltoall             182 15.2    0.000    0.000    0.019    0.020
 pw_scale                           289  9.5    0.016    0.019    0.016    0.019
 -------------------------------------------------------------------------------

 The number of warnings for this run is : 1
 
 -------------------------------------------------------------------------------
  **** **** ******  **  PROGRAM ENDED AT                 2025-10-25 09:48:42.441
 ***** ** ***  *** **   PROGRAM RAN ON                                    cn0401
 **    ****   ******    PROGRAM RAN BY                                  metdyn02
 ***** **    ** ** **   PROGRAM PROCESS ID                               1700698
  **** **  *******  **  PROGRAM STOPPED IN /scratch/hpc-prf-metdyn/metdyn02_Remi
                                           /04_mol/Benchmark_mol_low_scal/aUKBqs
                                           EOTmq69kFe5R_nOg/5k_set_final_qzvp/IH
                                           ECIH/DZVP/1e-5/9.0
