&GLOBAL
  PROJECT  MoS2
  PRINT_LEVEL MEDIUM
  RUN_TYPE ENERGY
  &TIMINGS
     THRESHOLD 0.0001
  &END
  TRACE
  TRACE_MASTER
  TRACE_ROUTINES compute_chi dbt_create_2c_R dbt_create_3c_R1_R2 dbt_create G_occ_vir contract_M_occ_vir_to_chi local_dbt_to_global_fm
&END GLOBAL
&FORCE_EVAL
  METHOD Quickstep
  &PROPERTIES
  &TDDFPT                          ! input section for TDDFPT
       KERNEL FULL                       ! specification of the underlying kernel matrix K
                                         ! FULL kernel is for GGA and hybrid functional computations
                                         ! sTDA kernel is referring to a semi-empirical sTDA computation
       NSTATES 20                      ! specifies the number of excited states to be computed
       MAX_ITER   100                  ! number of iterations for the Davidson algorithm
       CONVERGENCE [eV] 1.0e-6         ! convergence threshold in eV
       &XC                            ! If choosing kernel FULL, the underlying functional can be
        &XC_FUNCTIONAL PBE0             ! specified by adding an XC section
        &END XC_FUNCTIONAL              ! The functional can be chosen independently from the chosen
  	 &HF
          &MEMORY 
            MAX_MEMORY 64000
  	   &END MEMORY
  	 &END HF
       &END XC                        ! GS functional except when choosing ADMM 
    &END TDDFPT
   &END PROPERTIES
  &DFT
    BASIS_SET_FILE_NAME /scratch/hpc-prf-metdyn/metdyn02_Remi/BASIS_AUG_MOLOPT/BASIS_ALL_MOLOPT_AUG_for_excited_states
    BASIS_SET_FILE_NAME /scratch/hpc-prf-metdyn/metdyn02_Remi/BASIS_AUG_MOLOPT/BASIS_ALL_MOLOPT_AUG_for_excited_states_RI
    BASIS_SET_FILE_NAME /scratch/hpc-prf-metdyn/metdyn02_Remi/BASIS_AUG_MOLOPT/aug-cc-pVZ
    BASIS_SET_FILE_NAME /scratch/hpc-prf-metdyn/metdyn02_Remi/BASIS_AUG_MOLOPT/aug-cc-pVZ-TOTRI
    SORT_BASIS EXP
    POTENTIAL_FILE_NAME  /pc2/groups/hpc-prf-metdyn/metdyn02_Remi/cp2k/cp2k/data/ALL_POTENTIALS 
    CHARGE 0
    &MGRID
      CUTOFF  500
      REL_CUTOFF  100
    &END MGRID
    &POISSON
      PERIODIC NONE
      POISSON_SOLVER WAVELET
    &END POISSON
    &QS
      METHOD GAPW
      EPS_DEFAULT 1.0E-12
      EPS_PGF_ORB 1.0E-12
    &END QS
    &SCF
      SCF_GUESS ATOMIC
      EPS_SCF 1.0E-6
      MAX_SCF 500
      &PRINT
        &RESTART ON
        &END
      &END
      ADDED_MOS -1
      &MIXING
          METHOD BROYDEN_MIXING
          ALPHA 0.1
          BETA 1.5
          NBROYDEN 8
      &END
      CHOLESKY OFF
    &END SCF
    &XC
      &XC_FUNCTIONAL PBE0
      &END XC_FUNCTIONAL
      &HF
         &MEMORY
          MAX_MEMORY 64000
         &END MEMORY
      &END HF
     ! &WF_CORRELATION
     ! 	&RI_RPA
     !	  QUADRATURE_POINTS 100
     ! 	  &GW
     !	    CORR_MOS_OCC -1
     !	    CORR_MOS_VIRT -1
     !	    &BSE
     !         BSE_DIAG_METHOD FULLDIAG
     !        TDA OFF
     !      &END BSE 
     !    &END GW	
     !  &END RI_RPA
     !&END WF_CORRELATION
    &END XC
    &PRINT
    &OVERLAP_CONDITION ON
    DIAGONALIZATION T
    &END OVERLAP_CONDITION
    &END PRINT
  &END DFT
    &SUBSYS
    &CELL
      ABC                 30 30 30
      ALPHA_BETA_GAMMA    90 90 90
      PERIODIC NONE
    &END CELL

     &KIND F
      BASIS_SET ORB aug-SZV-MOLOPT-ae-mini
      BASIS_SET RI_AUX RI_aug-SZV-MOLOPT-ae-mini_N_RI_023_s_p_d_f_g_h_i_4_3_2_0_0_0_0_error_4.7e-06
      POTENTIAL ALL
     &END KIND

     &KIND S
      BASIS_SET ORB aug-SZV-MOLOPT-ae-mini
      BASIS_SET RI_AUX RI_aug-SZV-MOLOPT-ae-mini_N_RI_024_s_p_d_f_g_h_i_5_3_2_0_0_0_0_error_3.2e-06
      POTENTIAL ALL
     &END KIND

     &KIND C
      BASIS_SET ORB aug-SZV-MOLOPT-ae-mini
      BASIS_SET RI_AUX RI_aug-SZV-MOLOPT-ae-mini_N_RI_022_s_p_d_f_g_h_i_6_2_2_0_0_0_0_error_1.4e-06
      POTENTIAL ALL
     &END KIND

    




    &TOPOLOGY
     &CENTER_COORDINATES T
     &END CENTER_COORDINATES
    &END TOPOLOGY


    &COORD
     F 32.71000783 22.58176108 32.02449645
     S 33.06076466 21.96613567 39.22440561
     S 32.73807487 24.83940602 38.89752827
     S 31.56529142 23.51011560 41.31925641
     F 32.59924921 21.04616157 34.13305838
     F 32.21214792 24.48282604 33.74347497
     C 33.53154907 24.12410118 33.71832158
     C 33.80770573 21.67154164 33.99664141
     C 32.40445611 23.44465730 39.91741455
     C 33.71691315 22.79396208 32.89512880
     F 34.88513600 22.84732288 32.20576011
     S 34.70181331 21.62957179 36.71037531
     S 34.32826383 24.96100701 36.33184958
     F 34.21726299 25.16274897 33.16094944
     F 34.71884615 20.71218831 33.66620452
     C 34.19597003 22.43008508 35.23718099
     C 33.72505630 24.02933580 37.70916450
     C 33.87556168 22.68831142 37.86162268
     C 34.04625218 23.76320894 35.08575818
&END COORD
  &END SUBSYS
&END FORCE_EVAL
