&GLOBAL
  PROJECT  MoS2
  PRINT_LEVEL MEDIUM
  RUN_TYPE ENERGY
  &TIMINGS
     THRESHOLD 0.0001
  &END
  TRACE
  TRACE_MASTER
  TRACE_ROUTINES compute_chi dbt_create_2c_R dbt_create_3c_R1_R2 dbt_create G_occ_vir contract_M_occ_vir_to_chi local_dbt_to_global_fm
&END GLOBAL
&FORCE_EVAL
  METHOD Quickstep
  &PROPERTIES
  &TDDFPT                          ! input section for TDDFPT
       KERNEL FULL                       ! specification of the underlying kernel matrix K
                                         ! FULL kernel is for GGA and hybrid functional computations
                                         ! sTDA kernel is referring to a semi-empirical sTDA computation
       NSTATES 20                      ! specifies the number of excited states to be computed
       MAX_ITER   100                  ! number of iterations for the Davidson algorithm
       CONVERGENCE [eV] 1.0e-6         ! convergence threshold in eV
       &XC                            ! If choosing kernel FULL, the underlying functional can be
        &XC_FUNCTIONAL PBE0             ! specified by adding an XC section
        &END XC_FUNCTIONAL              ! The functional can be chosen independently from the chosen
  	 &HF
          &MEMORY 
            MAX_MEMORY 8000
  	   &END MEMORY
  	 &END HF
       &END XC                        ! GS functional except when choosing ADMM 
    &END TDDFPT
   &END PROPERTIES
  &DFT
    BASIS_SET_FILE_NAME /scratch/hpc-prf-metdyn/metdyn02_Remi/BASIS_AUG_MOLOPT/BASIS_ALL_MOLOPT_AUG_for_excited_states
    BASIS_SET_FILE_NAME /scratch/hpc-prf-metdyn/metdyn02_Remi/BASIS_AUG_MOLOPT/BASIS_ALL_MOLOPT_AUG_for_excited_states_RI
    BASIS_SET_FILE_NAME /scratch/hpc-prf-metdyn/metdyn02_Remi/BASIS_AUG_MOLOPT/aug-cc-pVZ
    BASIS_SET_FILE_NAME /scratch/hpc-prf-metdyn/metdyn02_Remi/BASIS_AUG_MOLOPT/aug-cc-pVZ-TOTRI
    SORT_BASIS EXP
    POTENTIAL_FILE_NAME  /pc2/groups/hpc-prf-metdyn/metdyn02_Remi/cp2k/cp2k/data/ALL_POTENTIALS 
    CHARGE 0
    &MGRID
      CUTOFF  500
      REL_CUTOFF  100
    &END MGRID
    &POISSON
      PERIODIC NONE
      POISSON_SOLVER WAVELET
    &END POISSON
    &QS
      METHOD GAPW
      EPS_DEFAULT 1.0E-12
      EPS_PGF_ORB 1.0E-12
    &END QS
    &SCF
      SCF_GUESS ATOMIC
      EPS_SCF 1.0E-6
      MAX_SCF 500
      &PRINT
        &RESTART ON
        &END
      &END
      ADDED_MOS -1
      &MIXING
          METHOD BROYDEN_MIXING
          ALPHA 0.1
          BETA 1.5
          NBROYDEN 8
      &END
      CHOLESKY OFF
    &END SCF
    &XC
      &XC_FUNCTIONAL PBE0
      &END XC_FUNCTIONAL
      &HF
         &MEMORY
          MAX_MEMORY 8000
         &END MEMORY
      &END HF
     ! &WF_CORRELATION
     ! 	&RI_RPA
     !	  QUADRATURE_POINTS 100
     ! 	  &GW
     !	    CORR_MOS_OCC -1
     !	    CORR_MOS_VIRT -1
     !	    &BSE
     !         BSE_DIAG_METHOD FULLDIAG
     !        TDA OFF
     !      &END BSE 
     !    &END GW	
     !  &END RI_RPA
     !&END WF_CORRELATION
    &END XC
    &PRINT
    &OVERLAP_CONDITION ON
    DIAGONALIZATION T
    &END OVERLAP_CONDITION
    &END PRINT
  &END DFT
    &SUBSYS
    &CELL
      ABC                 30 30 30
      ALPHA_BETA_GAMMA    90 90 90
      PERIODIC NONE
    &END CELL

     &KIND N
      BASIS_SET ORB aug-TZVP-MOLOPT-ae
      BASIS_SET RI_AUX RI_aug-TZVP-MOLOPT-ae_N_RI_081_s_p_d_f_g_h_i_7_5_4_3_2_0_0_error_5.6e-05
      POTENTIAL ALL
     &END KIND

     &KIND C
      BASIS_SET ORB aug-TZVP-MOLOPT-ae
      BASIS_SET RI_AUX RI_aug-TZVP-MOLOPT-ae_N_RI_073_s_p_d_f_g_h_i_7_4_3_3_2_0_0_error_4.5e-05
      POTENTIAL ALL
     &END KIND

     &KIND H
      BASIS_SET ORB aug-TZVP-MOLOPT-ae
      BASIS_SET RI_AUX RI_aug-TZVP-MOLOPT-ae_N_RI_023_s_p_d_f_g_h_i_4_3_2_0_0_0_0_error_4.6e-05
      POTENTIAL ALL
     &END KIND

     &KIND O
      BASIS_SET ORB aug-TZVP-MOLOPT-ae
      BASIS_SET RI_AUX RI_aug-TZVP-MOLOPT-ae_N_RI_084_s_p_d_f_g_h_i_7_4_3_3_2_1_0_error_6.7e-05
      POTENTIAL ALL
     &END KIND

    




    &TOPOLOGY
     &CENTER_COORDINATES T
     &END CENTER_COORDINATES
    &END TOPOLOGY


    &COORD
     N 22.42267618 26.31779412 30.10695948
     C 21.27759509 26.31734402 29.34358610
     H 22.84753655 25.44973981 30.41154920
     H 20.88291959 25.33013858 29.10478258
     H 19.07980565 26.46137809 27.87590057
     O 24.09793553 27.45750446 31.19611679
     O 20.85868138 29.84315945 28.97737441
     N 22.45411695 28.62452309 30.07165894
     C 23.08226990 27.47272863 30.51856917
     C 21.28565725 28.73769574 29.28942460
     C 20.67869114 27.45702967 28.91617829
     C 19.43439173 27.47775044 28.08585236
     H 22.89477759 29.50005831 30.34438267
     H 19.60873358 27.99306139 27.13108887
     H 18.63289449 28.03130861 28.59442988
&END COORD
  &END SUBSYS
&END FORCE_EVAL
