SIRIUS 7.7.0, git hash: https://api.github.com/repos/electronic-structure/SIRIUS/git/ref/tags/v7.7.0
 DBCSR| CPU Multiplication driver                                           BLAS (U)
 DBCSR| Multrec recursion limit                                              512 (U)
 DBCSR| Multiplication stack size                                           1000 (D)
 DBCSR| Maximum elements for images                                    UNLIMITED (U)
 DBCSR| Multiplicative factor virtual images                                   1 (U)
 DBCSR| Use multiplication densification                                       T (D)
 DBCSR| Multiplication size stacks                                             3 (U)
 DBCSR| Use memory pool for CPU allocation                                     F (U)
 DBCSR| Number of 3D layers                                               SINGLE (U)
 DBCSR| Use MPI memory allocation                                              F (U)
 DBCSR| Use RMA algorithm                                                      F (U)
 DBCSR| Use Communication thread                                               T (U)
 DBCSR| Communication thread load                                             75 (D)
 DBCSR| MPI: My process id                                                     0
 DBCSR| MPI: Number of processes                                             192
 DBCSR| OMP: Current number of threads                                         4
 DBCSR| OMP: Max number of threads                                             4
 DBCSR| Split modifier for TAS multiplication algorithm                  1.0E+00 (U)


  **** **** ******  **  PROGRAM STARTED AT               2025-10-25 09:20:31.451
 ***** ** ***  *** **   PROGRAM STARTED ON                                cn1505
 **    ****   ******    PROGRAM STARTED BY                              metdyn02
 ***** **    ** ** **   PROGRAM PROCESS ID                               3167541
  **** **  *******  **  PROGRAM STARTED IN /scratch/hpc-prf-metdyn/metdyn02_Remi
                                           /04_mol/Benchmark_mol_low_scal/aUKBqs
                                           EOTmq69kFe5R_nOg/5k_set_final_qzvp/OC
                                           ASIV01/DZVP/1e-2/3.0

 CP2K| version string:                 CP2K version 2025.2 (Development Version)
 CP2K| source code revision number:                                  git:2a4e9c4
 CP2K| cp2kflags: omp libint fftw3 libxc libgrpp elpa parallel scalapack mpi_f08
 CP2K|             cosma xsmm plumed2 spglib sirius libvori libbqb libvdwxc hdf5
 CP2K| is freely available from                            https://www.cp2k.org/
 CP2K| Program compiled at                      Fri Oct 24 04:52:17 PM CEST 2025
 CP2K| Program compiled on                                                login1
 CP2K| Program compiled for                                                local
 CP2K| Data directory path    /opt/software/pc2/EB-SW/software/CP2K/2025.2-foss-
 CP2K| Input file name                                                    GW.inp

 GLOBAL| Force Environment number                                              1
 GLOBAL| Basis set file name            /pc2/groups/hpc-prf-metdyn/metdyn02_Remi
 GLOBAL| Potential file name            /pc2/groups/hpc-prf-metdyn/metdyn02_Remi
 GLOBAL| MM Potential file name                                     MM_POTENTIAL
 GLOBAL| Coordinate file name                                      __STD_INPUT__
 GLOBAL| Method name                                                        CP2K
 GLOBAL| Project name                                                       MoS2
 GLOBAL| Run type                                                         ENERGY
 GLOBAL| FFT library                                                       FFTW3
 GLOBAL| Diagonalization library                                            ELPA
 GLOBAL| Cholesky decomposition library                                ScaLAPACK
 GLOBAL| DGEMM library                                                      BLAS
 GLOBAL| Minimum number of eigenvectors for ELPA usage                        16
 GLOBAL| Orthonormality check for eigenvectors                          DISABLED
 GLOBAL| Matrix multiplication library                                     COSMA
 GLOBAL| All-to-all communication in single precision                          F
 GLOBAL| FFTs using library dependent lengths                                  F
 GLOBAL| Grid backend                                                       AUTO
 GLOBAL| Global print level                                               MEDIUM
 GLOBAL| MPI I/O enabled                                                       T
 GLOBAL| Total number of message passing processes                           192
 GLOBAL| Number of distributed systems (nodes)                                 4
 GLOBAL| Number of threads for this process                                    4
 GLOBAL| This output is from process                                           0
 GLOBAL| OpenMP stack size per thread (OMP_STACKSIZE)                    default
 GLOBAL| CPU model name                          AMD EPYC 9655 96-Core Processor
 GLOBAL| CPUID                                                              1003

 MEMORY| system memory details [Kb]
 MEMORY|                        rank 0           min           max       average
 MEMORY| MemTotal            791039036     791039036     791039076     791039055
 MEMORY| MemFree             750167224     750167224     750526452     750324391
 MEMORY| Buffers                  3164          3164          3164          3164
 MEMORY| Cached                8041372       7687744       8093636       7878594
 MEMORY| Slab                  2174212       2132424       2174212       2146650
 MEMORY| SReclaimable           936860        909072        936860        918256
 MEMORY| MemLikelyFree       759148620     759027092     759195456     759124405


 *** Fundamental physical constants (SI units) ***

 *** Literature: B. J. Mohr and B. N. Taylor,
 ***             CODATA recommended values of the fundamental physical
 ***             constants: 2006, Web Version 5.1
 ***             http://physics.nist.gov/constants

 Speed of light in vacuum [m/s]                             2.99792458000000E+08
 Magnetic constant or permeability of vacuum [N/A**2]       1.25663706143592E-06
 Electric constant or permittivity of vacuum [F/m]          8.85418781762039E-12
 Planck constant (h) [J*s]                                  6.62606896000000E-34
 Planck constant (h-bar) [J*s]                              1.05457162825177E-34
 Elementary charge [C]                                      1.60217648700000E-19
 Electron mass [kg]                                         9.10938215000000E-31
 Electron g factor [ ]                                     -2.00231930436220E+00
 Proton mass [kg]                                           1.67262163700000E-27
 Fine-structure constant                                    7.29735253760000E-03
 Rydberg constant [1/m]                                     1.09737315685270E+07
 Avogadro constant [1/mol]                                  6.02214179000000E+23
 Boltzmann constant [J/K]                                   1.38065040000000E-23
 Atomic mass unit [kg]                                      1.66053878200000E-27
 Bohr radius [m]                                            5.29177208590000E-11

 *** Conversion factors ***

 [u] -> [a.u.]                                              1.82288848426455E+03
 [Angstrom] -> [Bohr] = [a.u.]                              1.88972613288564E+00
 [a.u.] = [Bohr] -> [Angstrom]                              5.29177208590000E-01
 [a.u.] -> [s]                                              2.41888432650478E-17
 [a.u.] -> [fs]                                             2.41888432650478E-02
 [a.u.] -> [J]                                              4.35974393937059E-18
 [a.u.] -> [N]                                              8.23872205491840E-08
 [a.u.] -> [K]                                              3.15774647902944E+05
 [a.u.] -> [kJ/mol]                                         2.62549961709828E+03
 [a.u.] -> [kcal/mol]                                       6.27509468713739E+02
 [a.u.] -> [Pa]                                             2.94210107994716E+13
 [a.u.] -> [bar]                                            2.94210107994716E+08
 [a.u.] -> [atm]                                            2.90362800883016E+08
 [a.u.] -> [eV]                                             2.72113838565563E+01
 [a.u.] -> [Hz]                                             6.57968392072181E+15
 [a.u.] -> [1/cm] (wave numbers)                            2.19474631370540E+05
 [a.u./Bohr**2] -> [1/cm]                                   5.14048714338585E+03
 

 CELL_TOP| Volume [angstrom^3]:                                     27000.000000
 CELL_TOP| Vector a [angstrom    30.000     0.000     0.000   |a| =    30.000000
 CELL_TOP| Vector b [angstrom     0.000    30.000     0.000   |b| =    30.000000
 CELL_TOP| Vector c [angstrom     0.000     0.000    30.000   |c| =    30.000000
 CELL_TOP| Angle (b,c), alpha [degree]:                                90.000000
 CELL_TOP| Angle (a,c), beta  [degree]:                                90.000000
 CELL_TOP| Angle (a,b), gamma [degree]:                                90.000000
 CELL_TOP| Numerically orthorhombic:                                         YES
 CELL_TOP| Periodicity                                                      NONE

 GENERATE|  Preliminary Number of Bonds generated:                             0
 GENERATE|  Achieved consistency in connectivity generation.

 CELL| Volume [angstrom^3]:                                         27000.000000
 CELL| Vector a [angstrom]:      30.000     0.000     0.000   |a| =    30.000000
 CELL| Vector b [angstrom]:       0.000    30.000     0.000   |b| =    30.000000
 CELL| Vector c [angstrom]:       0.000     0.000    30.000   |c| =    30.000000
 CELL| Angle (b,c), alpha [degree]:                                    90.000000
 CELL| Angle (a,c), beta  [degree]:                                    90.000000
 CELL| Angle (a,b), gamma [degree]:                                    90.000000
 CELL| Numerically orthorhombic:                                             YES
 CELL| Periodicity                                                          NONE

 CELL_REF| Volume [angstrom^3]:                                     27000.000000
 CELL_REF| Vector a [angstrom    30.000     0.000     0.000   |a| =    30.000000
 CELL_REF| Vector b [angstrom     0.000    30.000     0.000   |b| =    30.000000
 CELL_REF| Vector c [angstrom     0.000     0.000    30.000   |c| =    30.000000
 CELL_REF| Angle (b,c), alpha [degree]:                                90.000000
 CELL_REF| Angle (a,c), beta  [degree]:                                90.000000
 CELL_REF| Angle (a,b), gamma [degree]:                                90.000000
 CELL_REF| Numerically orthorhombic:                                         YES
 CELL_REF| Periodicity                                                      NONE

 *******************************************************************************
 *******************************************************************************
 **                                                                           **
 **     #####                         ##              ##                      **
 **    ##   ##            ##          ##              ##                      **
 **   ##     ##                       ##            ######                    **
 **   ##     ##  ##   ##  ##   #####  ##  ##   ####   ##    #####    #####    **
 **   ##     ##  ##   ##  ##  ##      ## ##   ##      ##   ##   ##  ##   ##   **
 **   ##  ## ##  ##   ##  ##  ##      ####     ###    ##   ######   ######    **
 **    ##  ###   ##   ##  ##  ##      ## ##      ##   ##   ##       ##        **
 **     #######   #####   ##   #####  ##  ##  ####    ##    #####   ##        **
 **           ##                                                    ##        **
 **                                                                           **
 **                                                ... make the atoms dance   **
 **                                                                           **
 **            Copyright (C) by CP2K developers group (2000-2025)             **
 **                      J. Chem. Phys. 152, 194103 (2020)                    **
 **                                                                           **
 *******************************************************************************

 DFT| Spin restricted Kohn-Sham (RKS) calculation                            RKS
 DFT| Multiplicity                                                             1
 DFT| Number of spin states                                                    1
 DFT| Charge                                                                   0
 DFT| Self-interaction correction (SIC)                                       NO
 DFT| Cutoffs: density                                              1.000000E-10
 DFT|          gradient                                             1.000000E-10
 DFT|          tau                                                  1.000000E-10
 DFT|          cutoff_smoothing_range                               0.000000E+00
 DFT| XC density smoothing                                                  NONE
 DFT| XC derivatives                                                          PW

 FUNCTIONAL| PBE:
 FUNCTIONAL| J.P.Perdew, K.Burke, M.Ernzerhof, Phys. Rev. Letter, vol. 77, n 18,
 FUNCTIONAL|  pp. 3865-3868, (1996)sx=0.750sc=1.000{spin unpolarized}           


 QS| Method:                                                                GAPW
 QS| Density plane wave grid type                        NON-SPHERICAL FULLSPACE
 QS| Number of grid levels:                                                    4
 QS| Density cutoff [a.u.]:                                                250.0
 QS| Multi grid cutoff [a.u.]: 1) grid level                               250.0
 QS|                           2) grid level                                83.3
 QS|                           3) grid level                                27.8
 QS|                           4) grid level                                 9.3
 QS| Grid level progression factor:                                          3.0
 QS| Relative density cutoff [a.u.]:                                        50.0
 QS| Interaction thresholds: eps_pgf_orb:                                1.0E-12
 QS|                         eps_filter_matrix:                          0.0E+00
 QS|                         eps_core_charge:                            1.0E-14
 QS|                         eps_rho_gspace:                             1.0E-12
 QS|                         eps_rho_rspace:                             1.0E-12
 QS|                         eps_gvg_rspace:                             1.0E-06
 QS|                         eps_ppl:                                    1.0E-02
 QS|                         eps_ppnl:                                   1.0E-08
 QS| GAPW|      One center basis from orbital basis primitives
 QS| GAPW|                   eps_fit:                                    1.0E-04
 QS| GAPW|                   eps_iso:                                    1.0E-12
 QS| GAPW|                   eps_svd:                                    1.0E-08
 QS| GAPW|                   eps_cpc:                                    1.0E-12
 QS| GAPW|   atom-r-grid: quadrature:                                     GC_LOG
 QS| GAPW|      atom-s-grid:  max l :                                          6
 QS| GAPW|      max_l_rho0 :                                                   2


 ATOMIC KIND INFORMATION

  1. Atomic kind: C                                     Number of atoms:       6

     Orbital Basis Set                                        aug-DZVP-MOLOPT-ae

       Number of orbital shell sets:                                           2
       Number of orbital shells:                                              10
       Number of primitive Cartesian functions:                               13
       Number of Cartesian basis functions:                                   35
       Number of spherical basis functions:                                   30
       Norm type:                                                              2

       Normalised Cartesian orbitals:

                        Set   Shell   Orbital            Exponent    Coefficient

                          1       1    2px               0.050000       0.000000
                                                         0.096935       0.005344
                                                         0.300899       0.144116
                                                         0.937529       0.673511
                                                         4.145546       1.425967
                          1       1    2py               0.050000       0.000000
                                                         0.096935       0.005344
                                                         0.300899       0.144116
                                                         0.937529       0.673511
                                                         4.145546       1.425967
                          1       1    2pz               0.050000       0.000000
                                                         0.096935       0.005344
                                                         0.300899       0.144116
                                                         0.937529       0.673511
                                                         4.145546       1.425967

                          1       2    3px               0.050000       0.000000
                                                         0.096935       0.066903
                                                         0.300899       0.082631
                                                         0.937529      -0.414500
                                                         4.145546      -0.833488
                          1       2    3py               0.050000       0.000000
                                                         0.096935       0.066903
                                                         0.300899       0.082631
                                                         0.937529      -0.414500
                                                         4.145546      -0.833488
                          1       2    3pz               0.050000       0.000000
                                                         0.096935       0.066903
                                                         0.300899       0.082631
                                                         0.937529      -0.414500
                                                         4.145546      -0.833488

                          1       3    4px               0.050000       0.052477
                                                         0.096935      -0.149600
                                                         0.300899      -0.031452
                                                         0.937529       0.106528
                                                         4.145546       0.000000
                          1       3    4py               0.050000       0.052477
                                                         0.096935      -0.149600
                                                         0.300899      -0.031452
                                                         0.937529       0.106528
                                                         4.145546       0.000000
                          1       3    4pz               0.050000       0.052477
                                                         0.096935      -0.149600
                                                         0.300899      -0.031452
                                                         0.937529       0.106528
                                                         4.145546       0.000000

                          1       4    3dx2              0.050000       0.000000
                                                         0.096935       0.001258
                                                         0.300899       0.105504
                                                         0.937529       0.830801
                                                         4.145546       0.718979
                          1       4    3dxy              0.050000       0.000000
                                                         0.096935       0.002179
                                                         0.300899       0.182739
                                                         0.937529       1.438990
                                                         4.145546       1.245309
                          1       4    3dxz              0.050000       0.000000
                                                         0.096935       0.002179
                                                         0.300899       0.182739
                                                         0.937529       1.438990
                                                         4.145546       1.245309
                          1       4    3dy2              0.050000       0.000000
                                                         0.096935       0.001258
                                                         0.300899       0.105504
                                                         0.937529       0.830801
                                                         4.145546       0.718979
                          1       4    3dyz              0.050000       0.000000
                                                         0.096935       0.002179
                                                         0.300899       0.182739
                                                         0.937529       1.438990
                                                         4.145546       1.245309
                          1       4    3dz2              0.050000       0.000000
                                                         0.096935       0.001258
                                                         0.300899       0.105504
                                                         0.937529       0.830801
                                                         4.145546       0.718979

                          1       5    4dx2              0.050000      -0.011665
                                                         0.096935       0.057456
                                                         0.300899      -0.258169
                                                         0.937529       0.000000
                                                         4.145546       0.000000
                          1       5    4dxy              0.050000      -0.020204
                                                         0.096935       0.099516
                                                         0.300899      -0.447162
                                                         0.937529       0.000000
                                                         4.145546       0.000000
                          1       5    4dxz              0.050000      -0.020204
                                                         0.096935       0.099516
                                                         0.300899      -0.447162
                                                         0.937529       0.000000
                                                         4.145546       0.000000
                          1       5    4dy2              0.050000      -0.011665
                                                         0.096935       0.057456
                                                         0.300899      -0.258169
                                                         0.937529       0.000000
                                                         4.145546       0.000000
                          1       5    4dyz              0.050000      -0.020204
                                                         0.096935       0.099516
                                                         0.300899      -0.447162
                                                         0.937529       0.000000
                                                         4.145546       0.000000
                          1       5    4dz2              0.050000      -0.011665
                                                         0.096935       0.057456
                                                         0.300899      -0.258169
                                                         0.937529       0.000000
                                                         4.145546       0.000000

                          1       6    4fx3              0.050000      -0.000180
                                                         0.096935       0.008160
                                                         0.300899       0.004002
                                                         0.937529       0.000000
                                                         4.145546       0.000000
                          1       6    4fx2y             0.050000      -0.000402
                                                         0.096935       0.018246
                                                         0.300899       0.008949
                                                         0.937529       0.000000
                                                         4.145546       0.000000
                          1       6    4fx2z             0.050000      -0.000402
                                                         0.096935       0.018246
                                                         0.300899       0.008949
                                                         0.937529       0.000000
                                                         4.145546       0.000000
                          1       6    4fxy2             0.050000      -0.000402
                                                         0.096935       0.018246
                                                         0.300899       0.008949
                                                         0.937529       0.000000
                                                         4.145546       0.000000
                          1       6    4fxyz             0.050000      -0.000696
                                                         0.096935       0.031603
                                                         0.300899       0.015500
                                                         0.937529       0.000000
                                                         4.145546       0.000000
                          1       6    4fxz2             0.050000      -0.000402
                                                         0.096935       0.018246
                                                         0.300899       0.008949
                                                         0.937529       0.000000
                                                         4.145546       0.000000
                          1       6    4fy3              0.050000      -0.000180
                                                         0.096935       0.008160
                                                         0.300899       0.004002
                                                         0.937529       0.000000
                                                         4.145546       0.000000
                          1       6    4fy2z             0.050000      -0.000402
                                                         0.096935       0.018246
                                                         0.300899       0.008949
                                                         0.937529       0.000000
                                                         4.145546       0.000000
                          1       6    4fyz2             0.050000      -0.000402
                                                         0.096935       0.018246
                                                         0.300899       0.008949
                                                         0.937529       0.000000
                                                         4.145546       0.000000
                          1       6    4fz3              0.050000      -0.000180
                                                         0.096935       0.008160
                                                         0.300899       0.004002
                                                         0.937529       0.000000
                                                         4.145546       0.000000

                          2       1    1s                0.060000       0.000000
                                                         0.161278       0.024253
                                                         0.523772      -0.029268
                                                         3.176528       0.666384
                                                        10.501907       2.110671
                                                        40.805234       2.242010
                                                       186.270922       1.801845
                                                      1238.394264      -0.490536

                          2       2    2s                0.060000       0.000000
                                                         0.161278       0.080328
                                                         0.523772       0.279468
                                                         3.176528      -0.079506
                                                        10.501907      -0.033488
                                                        40.805234       0.350132
                                                       186.270922      -0.108171
                                                      1238.394264       0.147138

                          2       3    3s                0.060000       0.000000
                                                         0.161278       0.225687
                                                         0.523772      -0.382710
                                                         3.176528      -0.308205
                                                        10.501907      -0.974990
                                                        40.805234      -2.174132
                                                       186.270922       1.755878
                                                      1238.394264     -12.484315

                          2       4    4s                0.060000      -0.055653
                                                         0.161278      -0.019607
                                                         0.523772       0.500289
                                                         3.176528       0.067234
                                                        10.501907       0.000000
                                                        40.805234       0.000000
                                                       186.270922       0.000000
                                                      1238.394264       0.000000

     RI Auxiliary Basis Set             RI_aug-DZVP-MOLOPT-ae_N_RI_018_s_p_d_f_g

       Number of orbital shell sets:                                           8
       Number of orbital shells:                                               8
       Number of primitive Cartesian functions:                                8
       Number of Cartesian basis functions:                                   19
       Number of spherical basis functions:                                   18
       Norm type:                                                              2

       Normalised Cartesian orbitals:

                        Set   Shell   Orbital            Exponent    Coefficient

                          1       1    5px               0.226574       0.222819
                          1       1    5py               0.226574       0.222819
                          1       1    5pz               0.226574       0.222819

                          2       1    1s                0.271170       0.267819

                          3       1    8dx2              1.020768       1.706208
                          3       1    8dxy              1.020768       2.955238
                          3       1    8dxz              1.020768       2.955238
                          3       1    8dy2              1.020768       1.706208
                          3       1    8dyz              1.020768       2.955238
                          3       1    8dz2              1.020768       1.706208

                          4       1    2s                1.522307       0.976758

                          5       1    6px               1.658837       2.683457
                          5       1    6py               1.658837       2.683457
                          5       1    6pz               1.658837       2.683457

                          6       1    3s               14.506602       5.297663

                          7       1    7px              23.847910      75.119554
                          7       1    7py              23.847910      75.119554
                          7       1    7pz              23.847910      75.119554

                          8       1    4s              102.384866      22.939657

       Atomic covalent radius [Angstrom]:                                  0.770

       Atomic van der Waals radius [Angstrom]:                             1.700

     The atoms of this atomic kind are PAW atoms (GAPW):
       Hard Gaussian function radius:                                      1.512
       Rho0 radius:                                                        1.512
       Maximum GTO radius used for PAW projector construction:            24.566

     GAPW Soft Basis Set                                 aug-DZVP-MOLOPT-ae_soft

       Number of orbital shell sets:                                           2
       Number of orbital shells:                                              10
       Number of primitive Cartesian functions:                                9
       Number of Cartesian basis functions:                                   35
       Number of spherical basis functions:                                   30
       Norm type:                                                              2

       Normalised Cartesian orbitals:

                        Set   Shell   Orbital            Exponent    Coefficient

                          1       1    2px               0.050000       0.000000
                                                         0.096935       0.005344
                                                         0.300899       0.144116
                                                         0.937529       0.673511
                                                         4.145546       1.425967
                          1       1    2py               0.050000       0.000000
                                                         0.096935       0.005344
                                                         0.300899       0.144116
                                                         0.937529       0.673511
                                                         4.145546       1.425967
                          1       1    2pz               0.050000       0.000000
                                                         0.096935       0.005344
                                                         0.300899       0.144116
                                                         0.937529       0.673511
                                                         4.145546       1.425967

                          1       2    3px               0.050000       0.000000
                                                         0.096935       0.066903
                                                         0.300899       0.082631
                                                         0.937529      -0.414500
                                                         4.145546      -0.833488
                          1       2    3py               0.050000       0.000000
                                                         0.096935       0.066903
                                                         0.300899       0.082631
                                                         0.937529      -0.414500
                                                         4.145546      -0.833488
                          1       2    3pz               0.050000       0.000000
                                                         0.096935       0.066903
                                                         0.300899       0.082631
                                                         0.937529      -0.414500
                                                         4.145546      -0.833488

                          1       3    4px               0.050000       0.052477
                                                         0.096935      -0.149600
                                                         0.300899      -0.031452
                                                         0.937529       0.106528
                                                         4.145546       0.000000
                          1       3    4py               0.050000       0.052477
                                                         0.096935      -0.149600
                                                         0.300899      -0.031452
                                                         0.937529       0.106528
                                                         4.145546       0.000000
                          1       3    4pz               0.050000       0.052477
                                                         0.096935      -0.149600
                                                         0.300899      -0.031452
                                                         0.937529       0.106528
                                                         4.145546       0.000000

                          1       4    3dx2              0.050000       0.000000
                                                         0.096935       0.001258
                                                         0.300899       0.105504
                                                         0.937529       0.830801
                                                         4.145546       0.718979
                          1       4    3dxy              0.050000       0.000000
                                                         0.096935       0.002179
                                                         0.300899       0.182739
                                                         0.937529       1.438990
                                                         4.145546       1.245309
                          1       4    3dxz              0.050000       0.000000
                                                         0.096935       0.002179
                                                         0.300899       0.182739
                                                         0.937529       1.438990
                                                         4.145546       1.245309
                          1       4    3dy2              0.050000       0.000000
                                                         0.096935       0.001258
                                                         0.300899       0.105504
                                                         0.937529       0.830801
                                                         4.145546       0.718979
                          1       4    3dyz              0.050000       0.000000
                                                         0.096935       0.002179
                                                         0.300899       0.182739
                                                         0.937529       1.438990
                                                         4.145546       1.245309
                          1       4    3dz2              0.050000       0.000000
                                                         0.096935       0.001258
                                                         0.300899       0.105504
                                                         0.937529       0.830801
                                                         4.145546       0.718979

                          1       5    4dx2              0.050000      -0.011665
                                                         0.096935       0.057456
                                                         0.300899      -0.258169
                                                         0.937529       0.000000
                                                         4.145546       0.000000
                          1       5    4dxy              0.050000      -0.020204
                                                         0.096935       0.099516
                                                         0.300899      -0.447162
                                                         0.937529       0.000000
                                                         4.145546       0.000000
                          1       5    4dxz              0.050000      -0.020204
                                                         0.096935       0.099516
                                                         0.300899      -0.447162
                                                         0.937529       0.000000
                                                         4.145546       0.000000
                          1       5    4dy2              0.050000      -0.011665
                                                         0.096935       0.057456
                                                         0.300899      -0.258169
                                                         0.937529       0.000000
                                                         4.145546       0.000000
                          1       5    4dyz              0.050000      -0.020204
                                                         0.096935       0.099516
                                                         0.300899      -0.447162
                                                         0.937529       0.000000
                                                         4.145546       0.000000
                          1       5    4dz2              0.050000      -0.011665
                                                         0.096935       0.057456
                                                         0.300899      -0.258169
                                                         0.937529       0.000000
                                                         4.145546       0.000000

                          1       6    4fx3              0.050000      -0.000180
                                                         0.096935       0.008160
                                                         0.300899       0.004002
                                                         0.937529       0.000000
                                                         4.145546       0.000000
                          1       6    4fx2y             0.050000      -0.000402
                                                         0.096935       0.018246
                                                         0.300899       0.008949
                                                         0.937529       0.000000
                                                         4.145546       0.000000
                          1       6    4fx2z             0.050000      -0.000402
                                                         0.096935       0.018246
                                                         0.300899       0.008949
                                                         0.937529       0.000000
                                                         4.145546       0.000000
                          1       6    4fxy2             0.050000      -0.000402
                                                         0.096935       0.018246
                                                         0.300899       0.008949
                                                         0.937529       0.000000
                                                         4.145546       0.000000
                          1       6    4fxyz             0.050000      -0.000696
                                                         0.096935       0.031603
                                                         0.300899       0.015500
                                                         0.937529       0.000000
                                                         4.145546       0.000000
                          1       6    4fxz2             0.050000      -0.000402
                                                         0.096935       0.018246
                                                         0.300899       0.008949
                                                         0.937529       0.000000
                                                         4.145546       0.000000
                          1       6    4fy3              0.050000      -0.000180
                                                         0.096935       0.008160
                                                         0.300899       0.004002
                                                         0.937529       0.000000
                                                         4.145546       0.000000
                          1       6    4fy2z             0.050000      -0.000402
                                                         0.096935       0.018246
                                                         0.300899       0.008949
                                                         0.937529       0.000000
                                                         4.145546       0.000000
                          1       6    4fyz2             0.050000      -0.000402
                                                         0.096935       0.018246
                                                         0.300899       0.008949
                                                         0.937529       0.000000
                                                         4.145546       0.000000
                          1       6    4fz3              0.050000      -0.000180
                                                         0.096935       0.008160
                                                         0.300899       0.004002
                                                         0.937529       0.000000
                                                         4.145546       0.000000

                          2       1    1s                0.060000       0.000000
                                                         0.161278       0.024253
                                                         0.523772      -0.029268
                                                         3.176528       0.666384

                          2       2    2s                0.060000       0.000000
                                                         0.161278       0.080328
                                                         0.523772       0.279468
                                                         3.176528      -0.079506

                          2       3    3s                0.060000       0.000000
                                                         0.161278       0.225687
                                                         0.523772      -0.382710
                                                         3.176528      -0.308205

                          2       4    4s                0.060000      -0.055653
                                                         0.161278      -0.019607
                                                         0.523772       0.500289
                                                         3.176528       0.067234

     AE Potential information for                                            ALL

       Description:                                       All-electron potential
                                          Krack, Parrinello, PCCP 2, 2105 (2000)

       Gaussian exponent of the core charge distribution:               4.109048
       Electronic configuration (s p d ...):                           4   2   0

  2. Atomic kind: H                                     Number of atoms:       5

     Orbital Basis Set                                        aug-DZVP-MOLOPT-ae

       Number of orbital shell sets:                                           1
       Number of orbital shells:                                               5
       Number of primitive Cartesian functions:                                5
       Number of Cartesian basis functions:                                    9
       Number of spherical basis functions:                                    9
       Norm type:                                                              2

       Normalised Cartesian orbitals:

                        Set   Shell   Orbital            Exponent    Coefficient

                          1       1    2s                0.035000       0.000000
                                                         0.111920       0.009149
                                                         0.374948       0.205449
                                                         1.446686       0.373852
                                                        12.248855       0.310040

                          1       2    3s                0.035000       0.000000
                                                         0.111920       0.143650
                                                         0.374948       0.007287
                                                         1.446686      -0.188851
                                                        12.248855      -0.144753

                          1       3    4s                0.035000       0.090463
                                                         0.111920      -0.203934
                                                         0.374948      -0.000376
                                                         1.446686      -0.000051
                                                        12.248855       0.000000

                          1       4    3px               0.035000       0.000000
                                                         0.111920       0.007225
                                                         0.374948       0.280770
                                                         1.446686       0.896497
                                                        12.248855      -0.764411
                          1       4    3py               0.035000       0.000000
                                                         0.111920       0.007225
                                                         0.374948       0.280770
                                                         1.446686       0.896497
                                                        12.248855      -0.764411
                          1       4    3pz               0.035000       0.000000
                                                         0.111920       0.007225
                                                         0.374948       0.280770
                                                         1.446686       0.896497
                                                        12.248855      -0.764411

                          1       5    4px               0.035000       0.011331
                                                         0.111920       0.048737
                                                         0.374948       0.028490
                                                         1.446686       0.035587
                                                        12.248855       0.000000
                          1       5    4py               0.035000       0.011331
                                                         0.111920       0.048737
                                                         0.374948       0.028490
                                                         1.446686       0.035587
                                                        12.248855       0.000000
                          1       5    4pz               0.035000       0.011331
                                                         0.111920       0.048737
                                                         0.374948       0.028490
                                                         1.446686       0.035587
                                                        12.248855       0.000000

     RI Auxiliary Basis Set             RI_aug-DZVP-MOLOPT-ae_N_RI_005_s_p_d_f_g

       Number of orbital shell sets:                                           3
       Number of orbital shells:                                               3
       Number of primitive Cartesian functions:                                3
       Number of Cartesian basis functions:                                    5
       Number of spherical basis functions:                                    5
       Norm type:                                                              2

       Normalised Cartesian orbitals:

                        Set   Shell   Orbital            Exponent    Coefficient

                          1       1    1s                0.602033       0.487108

                          2       1    3px               1.106593       1.617801
                          2       1    3py               1.106593       1.617801
                          2       1    3pz               1.106593       1.617801

                          3       1    2s                2.055112       1.223311

       Atomic covalent radius [Angstrom]:                                  0.320

       Atomic van der Waals radius [Angstrom]:                             1.090

     The atoms of this atomic kind are PAW atoms (GAPW):
       Hard Gaussian function radius:                                      1.200
       Rho0 radius:                                                        1.200
       Maximum GTO radius used for PAW projector construction:            24.566

     GAPW Soft Basis Set                                 aug-DZVP-MOLOPT-ae_soft

       Number of orbital shell sets:                                           1
       Number of orbital shells:                                               5
       Number of primitive Cartesian functions:                                4
       Number of Cartesian basis functions:                                    9
       Number of spherical basis functions:                                    9
       Norm type:                                                              2

       Normalised Cartesian orbitals:

                        Set   Shell   Orbital            Exponent    Coefficient

                          1       1    2s                0.035000       0.000000
                                                         0.111920       0.009149
                                                         0.374948       0.205449
                                                         1.446686       0.373852

                          1       2    3s                0.035000       0.000000
                                                         0.111920       0.143650
                                                         0.374948       0.007287
                                                         1.446686      -0.188851

                          1       3    4s                0.035000       0.090463
                                                         0.111920      -0.203934
                                                         0.374948      -0.000376
                                                         1.446686      -0.000051

                          1       4    3px               0.035000       0.000000
                                                         0.111920       0.007225
                                                         0.374948       0.280770
                                                         1.446686       0.896497
                          1       4    3py               0.035000       0.000000
                                                         0.111920       0.007225
                                                         0.374948       0.280770
                                                         1.446686       0.896497
                          1       4    3pz               0.035000       0.000000
                                                         0.111920       0.007225
                                                         0.374948       0.280770
                                                         1.446686       0.896497

                          1       5    4px               0.035000       0.011331
                                                         0.111920       0.048737
                                                         0.374948       0.028490
                                                         1.446686       0.035587
                          1       5    4py               0.035000       0.011331
                                                         0.111920       0.048737
                                                         0.374948       0.028490
                                                         1.446686       0.035587
                          1       5    4pz               0.035000       0.011331
                                                         0.111920       0.048737
                                                         0.374948       0.028490
                                                         1.446686       0.035587

     AE Potential information for                                            ALL

       Description:                                       All-electron potential
                                          Krack, Parrinello, PCCP 2, 2105 (2000)

       Gaussian exponent of the core charge distribution:              12.500000
       Electronic configuration (s p d ...):                           1   0   0

  3. Atomic kind: N                                     Number of atoms:       3

     Orbital Basis Set                                        aug-DZVP-MOLOPT-ae

       Number of orbital shell sets:                                           2
       Number of orbital shells:                                              10
       Number of primitive Cartesian functions:                               12
       Number of Cartesian basis functions:                                   35
       Number of spherical basis functions:                                   30
       Norm type:                                                              2

       Normalised Cartesian orbitals:

                        Set   Shell   Orbital            Exponent    Coefficient

                          1       1    2s                0.060000      -0.096639
                                                         0.166384       0.037538
                                                         0.634073      -0.055669
                                                         2.325354       0.000000
                                                        12.268174       0.000000

                          1       2    3px               0.060000       0.000000
                                                         0.166384      -0.031930
                                                         0.634073      -0.492962
                                                         2.325354      -1.380142
                                                        12.268174      -2.349358
                          1       2    3py               0.060000       0.000000
                                                         0.166384      -0.031930
                                                         0.634073      -0.492962
                                                         2.325354      -1.380142
                                                        12.268174      -2.349358
                          1       2    3pz               0.060000       0.000000
                                                         0.166384      -0.031930
                                                         0.634073      -0.492962
                                                         2.325354      -1.380142
                                                        12.268174      -2.349358

                          1       3    4px               0.060000       0.000000
                                                         0.166384       0.169694
                                                         0.634073      -0.220766
                                                         2.325354      -0.809234
                                                        12.268174      -0.998521
                          1       3    4py               0.060000       0.000000
                                                         0.166384       0.169694
                                                         0.634073      -0.220766
                                                         2.325354      -0.809234
                                                        12.268174      -0.998521
                          1       3    4pz               0.060000       0.000000
                                                         0.166384       0.169694
                                                         0.634073      -0.220766
                                                         2.325354      -0.809234
                                                        12.268174      -0.998521

                          1       4    5px               0.060000       0.028594
                                                         0.166384       0.063224
                                                         0.634073      -0.046183
                                                         2.325354       0.000000
                                                        12.268174       0.000000
                          1       4    5py               0.060000       0.028594
                                                         0.166384       0.063224
                                                         0.634073      -0.046183
                                                         2.325354       0.000000
                                                        12.268174       0.000000
                          1       4    5pz               0.060000       0.028594
                                                         0.166384       0.063224
                                                         0.634073      -0.046183
                                                         2.325354       0.000000
                                                        12.268174       0.000000

                          1       5    4dx2              0.060000       0.000000
                                                         0.166384       0.019402
                                                         0.634073       0.555487
                                                         2.325354       1.255926
                                                        12.268174      -0.426175
                          1       5    4dxy              0.060000       0.000000
                                                         0.166384       0.033606
                                                         0.634073       0.962132
                                                         2.325354       2.175327
                                                        12.268174      -0.738157
                          1       5    4dxz              0.060000       0.000000
                                                         0.166384       0.033606
                                                         0.634073       0.962132
                                                         2.325354       2.175327
                                                        12.268174      -0.738157
                          1       5    4dy2              0.060000       0.000000
                                                         0.166384       0.019402
                                                         0.634073       0.555487
                                                         2.325354       1.255926
                                                        12.268174      -0.426175
                          1       5    4dyz              0.060000       0.000000
                                                         0.166384       0.033606
                                                         0.634073       0.962132
                                                         2.325354       2.175327
                                                        12.268174      -0.738157
                          1       5    4dz2              0.060000       0.000000
                                                         0.166384       0.019402
                                                         0.634073       0.555487
                                                         2.325354       1.255926
                                                        12.268174      -0.426175

                          1       6    5dx2              0.060000      -0.008089
                                                         0.166384      -0.027907
                                                         0.634073      -0.057221
                                                         2.325354       0.000000
                                                        12.268174       0.000000
                          1       6    5dxy              0.060000      -0.014011
                                                         0.166384      -0.048336
                                                         0.634073      -0.099109
                                                         2.325354       0.000000
                                                        12.268174       0.000000
                          1       6    5dxz              0.060000      -0.014011
                                                         0.166384      -0.048336
                                                         0.634073      -0.099109
                                                         2.325354       0.000000
                                                        12.268174       0.000000
                          1       6    5dy2              0.060000      -0.008089
                                                         0.166384      -0.027907
                                                         0.634073      -0.057221
                                                         2.325354       0.000000
                                                        12.268174       0.000000
                          1       6    5dyz              0.060000      -0.014011
                                                         0.166384      -0.048336
                                                         0.634073      -0.099109
                                                         2.325354       0.000000
                                                        12.268174       0.000000
                          1       6    5dz2              0.060000      -0.008089
                                                         0.166384      -0.027907
                                                         0.634073      -0.057221
                                                         2.325354       0.000000
                                                        12.268174       0.000000

                          1       7    5fx3              0.060000       0.000067
                                                         0.166384       0.012645
                                                         0.634073       0.328269
                                                         2.325354       1.687172
                                                        12.268174       0.000000
                          1       7    5fx2y             0.060000       0.000150
                                                         0.166384       0.028275
                                                         0.634073       0.734031
                                                         2.325354       3.772631
                                                        12.268174       0.000000
                          1       7    5fx2z             0.060000       0.000150
                                                         0.166384       0.028275
                                                         0.634073       0.734031
                                                         2.325354       3.772631
                                                        12.268174       0.000000
                          1       7    5fxy2             0.060000       0.000150
                                                         0.166384       0.028275
                                                         0.634073       0.734031
                                                         2.325354       3.772631
                                                        12.268174       0.000000
                          1       7    5fxyz             0.060000       0.000260
                                                         0.166384       0.048973
                                                         0.634073       1.271379
                                                         2.325354       6.534389
                                                        12.268174       0.000000
                          1       7    5fxz2             0.060000       0.000150
                                                         0.166384       0.028275
                                                         0.634073       0.734031
                                                         2.325354       3.772631
                                                        12.268174       0.000000
                          1       7    5fy3              0.060000       0.000067
                                                         0.166384       0.012645
                                                         0.634073       0.328269
                                                         2.325354       1.687172
                                                        12.268174       0.000000
                          1       7    5fy2z             0.060000       0.000150
                                                         0.166384       0.028275
                                                         0.634073       0.734031
                                                         2.325354       3.772631
                                                        12.268174       0.000000
                          1       7    5fyz2             0.060000       0.000150
                                                         0.166384       0.028275
                                                         0.634073       0.734031
                                                         2.325354       3.772631
                                                        12.268174       0.000000
                          1       7    5fz3              0.060000       0.000067
                                                         0.166384       0.012645
                                                         0.634073       0.328269
                                                         2.325354       1.687172
                                                        12.268174       0.000000

                          2       1    1s                0.191012      -0.002582
                                                         0.666629       0.012902
                                                         4.403487      -0.858326
                                                        14.651380      -2.749170
                                                        57.692026      -2.958222
                                                       257.997554      -1.897300
                                                      1713.054433      -1.166486

                          2       2    2s                0.191012       0.079194
                                                         0.666629       0.351708
                                                         4.403487       0.009155
                                                        14.651380       0.000424
                                                        57.692026       0.772862
                                                       257.997554      -0.458166
                                                      1713.054433       0.520658

                          2       3    3s                0.191012       0.300064
                                                         0.666629      -0.436823
                                                         4.403487      -0.072962
                                                        14.651380      -0.095292
                                                        57.692026      -1.262420
                                                       257.997554       0.741400
                                                      1713.054433      -0.270364

     RI Auxiliary Basis Set             RI_aug-DZVP-MOLOPT-ae_N_RI_031_s_p_d_f_g

       Number of orbital shell sets:                                           9
       Number of orbital shells:                                               9
       Number of primitive Cartesian functions:                                9
       Number of Cartesian basis functions:                                   41
       Number of spherical basis functions:                                   31
       Norm type:                                                              2

       Normalised Cartesian orbitals:

                        Set   Shell   Orbital            Exponent    Coefficient

                          1       1    5px               0.588162       0.734195
                          1       1    5py               0.588162       0.734195
                          1       1    5pz               0.588162       0.734195

                          2       1    9gx4              0.588387       0.258826
                          2       1    9gx3y             0.588387       0.684790
                          2       1    9gx3z             0.588387       0.684790
                          2       1    9gx2y2            0.588387       0.884060
                          2       1    9gx2yz            0.588387       1.531236
                          2       1    9gx2z2            0.588387       0.884060
                          2       1    9gxy3             0.588387       0.684790
                          2       1    9gxy2z            0.588387       1.531236
                          2       1    9gxyz2            0.588387       1.531236
                          2       1    9gxz3             0.588387       0.684790
                          2       1    9gy4              0.588387       0.258826
                          2       1    9gy3z             0.588387       0.684790
                          2       1    9gy2z2            0.588387       0.884060
                          2       1    9gyz3             0.588387       0.684790
                          2       1    9gz4              0.588387       0.258826

                          3       1    1s                0.787747       0.595937

                          4       1    8fx3              1.052173       1.650632
                          4       1    8fx2y             1.052173       3.690925
                          4       1    8fx2z             1.052173       3.690925
                          4       1    8fxy2             1.052173       3.690925
                          4       1    8fxyz             1.052173       6.392869
                          4       1    8fxz2             1.052173       3.690925
                          4       1    8fy3              1.052173       1.650632
                          4       1    8fy2z             1.052173       3.690925
                          4       1    8fyz2             1.052173       3.690925
                          4       1    8fz3              1.052173       1.650632

                          5       1    7dx2              1.492049       3.315352
                          5       1    7dxy              1.492049       5.742358
                          5       1    7dxz              1.492049       5.742358
                          5       1    7dy2              1.492049       3.315352
                          5       1    7dyz              1.492049       5.742358
                          5       1    7dz2              1.492049       3.315352

                          6       1    6px               1.830187       3.034306
                          6       1    6py               1.830187       3.034306
                          6       1    6pz               1.830187       3.034306

                          7       1    2s                4.309668       2.131783

                          8       1    3s               21.163049       7.032241

                          9       1    4s              110.226660      24.245161

       Atomic covalent radius [Angstrom]:                                  0.750

       Atomic van der Waals radius [Angstrom]:                             1.550

     The atoms of this atomic kind are PAW atoms (GAPW):
       Hard Gaussian function radius:                                      1.512
       Rho0 radius:                                                        1.512
       Maximum GTO radius used for PAW projector construction:            24.566

     GAPW Soft Basis Set                                 aug-DZVP-MOLOPT-ae_soft

       Number of orbital shell sets:                                           2
       Number of orbital shells:                                              10
       Number of primitive Cartesian functions:                                6
       Number of Cartesian basis functions:                                   35
       Number of spherical basis functions:                                   30
       Norm type:                                                              2

       Normalised Cartesian orbitals:

                        Set   Shell   Orbital            Exponent    Coefficient

                          1       1    2s                0.060000      -0.096639
                                                         0.166384       0.037538
                                                         0.634073      -0.055669
                                                         2.325354       0.000000

                          1       2    3px               0.060000       0.000000
                                                         0.166384      -0.031930
                                                         0.634073      -0.492962
                                                         2.325354      -1.380142
                          1       2    3py               0.060000       0.000000
                                                         0.166384      -0.031930
                                                         0.634073      -0.492962
                                                         2.325354      -1.380142
                          1       2    3pz               0.060000       0.000000
                                                         0.166384      -0.031930
                                                         0.634073      -0.492962
                                                         2.325354      -1.380142

                          1       3    4px               0.060000       0.000000
                                                         0.166384       0.169694
                                                         0.634073      -0.220766
                                                         2.325354      -0.809234
                          1       3    4py               0.060000       0.000000
                                                         0.166384       0.169694
                                                         0.634073      -0.220766
                                                         2.325354      -0.809234
                          1       3    4pz               0.060000       0.000000
                                                         0.166384       0.169694
                                                         0.634073      -0.220766
                                                         2.325354      -0.809234

                          1       4    5px               0.060000       0.028594
                                                         0.166384       0.063224
                                                         0.634073      -0.046183
                                                         2.325354       0.000000
                          1       4    5py               0.060000       0.028594
                                                         0.166384       0.063224
                                                         0.634073      -0.046183
                                                         2.325354       0.000000
                          1       4    5pz               0.060000       0.028594
                                                         0.166384       0.063224
                                                         0.634073      -0.046183
                                                         2.325354       0.000000

                          1       5    4dx2              0.060000       0.000000
                                                         0.166384       0.019402
                                                         0.634073       0.555487
                                                         2.325354       1.255926
                          1       5    4dxy              0.060000       0.000000
                                                         0.166384       0.033606
                                                         0.634073       0.962132
                                                         2.325354       2.175327
                          1       5    4dxz              0.060000       0.000000
                                                         0.166384       0.033606
                                                         0.634073       0.962132
                                                         2.325354       2.175327
                          1       5    4dy2              0.060000       0.000000
                                                         0.166384       0.019402
                                                         0.634073       0.555487
                                                         2.325354       1.255926
                          1       5    4dyz              0.060000       0.000000
                                                         0.166384       0.033606
                                                         0.634073       0.962132
                                                         2.325354       2.175327
                          1       5    4dz2              0.060000       0.000000
                                                         0.166384       0.019402
                                                         0.634073       0.555487
                                                         2.325354       1.255926

                          1       6    5dx2              0.060000      -0.008089
                                                         0.166384      -0.027907
                                                         0.634073      -0.057221
                                                         2.325354       0.000000
                          1       6    5dxy              0.060000      -0.014011
                                                         0.166384      -0.048336
                                                         0.634073      -0.099109
                                                         2.325354       0.000000
                          1       6    5dxz              0.060000      -0.014011
                                                         0.166384      -0.048336
                                                         0.634073      -0.099109
                                                         2.325354       0.000000
                          1       6    5dy2              0.060000      -0.008089
                                                         0.166384      -0.027907
                                                         0.634073      -0.057221
                                                         2.325354       0.000000
                          1       6    5dyz              0.060000      -0.014011
                                                         0.166384      -0.048336
                                                         0.634073      -0.099109
                                                         2.325354       0.000000
                          1       6    5dz2              0.060000      -0.008089
                                                         0.166384      -0.027907
                                                         0.634073      -0.057221
                                                         2.325354       0.000000

                          1       7    5fx3              0.060000       0.000067
                                                         0.166384       0.012645
                                                         0.634073       0.328269
                                                         2.325354       1.687172
                          1       7    5fx2y             0.060000       0.000150
                                                         0.166384       0.028275
                                                         0.634073       0.734031
                                                         2.325354       3.772631
                          1       7    5fx2z             0.060000       0.000150
                                                         0.166384       0.028275
                                                         0.634073       0.734031
                                                         2.325354       3.772631
                          1       7    5fxy2             0.060000       0.000150
                                                         0.166384       0.028275
                                                         0.634073       0.734031
                                                         2.325354       3.772631
                          1       7    5fxyz             0.060000       0.000260
                                                         0.166384       0.048973
                                                         0.634073       1.271379
                                                         2.325354       6.534389
                          1       7    5fxz2             0.060000       0.000150
                                                         0.166384       0.028275
                                                         0.634073       0.734031
                                                         2.325354       3.772631
                          1       7    5fy3              0.060000       0.000067
                                                         0.166384       0.012645
                                                         0.634073       0.328269
                                                         2.325354       1.687172
                          1       7    5fy2z             0.060000       0.000150
                                                         0.166384       0.028275
                                                         0.634073       0.734031
                                                         2.325354       3.772631
                          1       7    5fyz2             0.060000       0.000150
                                                         0.166384       0.028275
                                                         0.634073       0.734031
                                                         2.325354       3.772631
                          1       7    5fz3              0.060000       0.000067
                                                         0.166384       0.012645
                                                         0.634073       0.328269
                                                         2.325354       1.687172

                          2       1    1s                0.191012      -0.002582
                                                         0.666629       0.012902

                          2       2    2s                0.191012       0.079194
                                                         0.666629       0.351708

                          2       3    3s                0.191012       0.300064
                                                         0.666629      -0.436823

     AE Potential information for                                            ALL

       Description:                                       All-electron potential
                                          Krack, Parrinello, PCCP 2, 2105 (2000)

       Gaussian exponent of the core charge distribution:               5.979100
       Electronic configuration (s p d ...):                           4   3   0

  4. Atomic kind: O                                     Number of atoms:       1

     Orbital Basis Set                                        aug-DZVP-MOLOPT-ae

       Number of orbital shell sets:                                           2
       Number of orbital shells:                                              10
       Number of primitive Cartesian functions:                               12
       Number of Cartesian basis functions:                                   35
       Number of spherical basis functions:                                   30
       Norm type:                                                              2

       Normalised Cartesian orbitals:

                        Set   Shell   Orbital            Exponent    Coefficient

                          1       1    2s                0.090000       0.120905
                                                         0.191936      -0.019521
                                                         0.750068       0.059582
                                                         2.907977       0.000000
                                                        16.368686       0.000000

                          1       2    3px               0.090000       0.000000
                                                         0.191936       0.023686
                                                         0.750068       0.626550
                                                         2.907977       2.082711
                                                        16.368686       3.596544
                          1       2    3py               0.090000       0.000000
                                                         0.191936       0.023686
                                                         0.750068       0.626550
                                                         2.907977       2.082711
                                                        16.368686       3.596544
                          1       2    3pz               0.090000       0.000000
                                                         0.191936       0.023686
                                                         0.750068       0.626550
                                                         2.907977       2.082711
                                                        16.368686       3.596544

                          1       3    4px               0.090000       0.000000
                                                         0.191936       0.196557
                                                         0.750068      -0.157257
                                                         2.907977      -0.566756
                                                        16.368686      -1.323495
                          1       3    4py               0.090000       0.000000
                                                         0.191936       0.196557
                                                         0.750068      -0.157257
                                                         2.907977      -0.566756
                                                        16.368686      -1.323495
                          1       3    4pz               0.090000       0.000000
                                                         0.191936       0.196557
                                                         0.750068      -0.157257
                                                         2.907977      -0.566756
                                                        16.368686      -1.323495

                          1       4    5px               0.090000       0.020606
                                                         0.191936       0.124186
                                                         0.750068       0.098287
                                                         2.907977       0.000000
                                                        16.368686       0.000000
                          1       4    5py               0.090000       0.020606
                                                         0.191936       0.124186
                                                         0.750068       0.098287
                                                         2.907977       0.000000
                                                        16.368686       0.000000
                          1       4    5pz               0.090000       0.020606
                                                         0.191936       0.124186
                                                         0.750068       0.098287
                                                         2.907977       0.000000
                                                        16.368686       0.000000

                          1       5    4dx2              0.090000       0.000000
                                                         0.191936       0.030414
                                                         0.750068       0.724129
                                                         2.907977       1.586204
                                                        16.368686       1.487256
                          1       5    4dxy              0.090000       0.000000
                                                         0.191936       0.052678
                                                         0.750068       1.254227
                                                         2.907977       2.747386
                                                        16.368686       2.576002
                          1       5    4dxz              0.090000       0.000000
                                                         0.191936       0.052678
                                                         0.750068       1.254227
                                                         2.907977       2.747386
                                                        16.368686       2.576002
                          1       5    4dy2              0.090000       0.000000
                                                         0.191936       0.030414
                                                         0.750068       0.724129
                                                         2.907977       1.586204
                                                        16.368686       1.487256
                          1       5    4dyz              0.090000       0.000000
                                                         0.191936       0.052678
                                                         0.750068       1.254227
                                                         2.907977       2.747386
                                                        16.368686       2.576002
                          1       5    4dz2              0.090000       0.000000
                                                         0.191936       0.030414
                                                         0.750068       0.724129
                                                         2.907977       1.586204
                                                        16.368686       1.487256

                          1       6    5dx2              0.090000      -0.010181
                                                         0.191936       0.018957
                                                         0.750068       0.933882
                                                         2.907977       0.008471
                                                        16.368686       0.000000
                          1       6    5dxy              0.090000      -0.017634
                                                         0.191936       0.032834
                                                         0.750068       1.617531
                                                         2.907977       0.014671
                                                        16.368686       0.000000
                          1       6    5dxz              0.090000      -0.017634
                                                         0.191936       0.032834
                                                         0.750068       1.617531
                                                         2.907977       0.014671
                                                        16.368686       0.000000
                          1       6    5dy2              0.090000      -0.010181
                                                         0.191936       0.018957
                                                         0.750068       0.933882
                                                         2.907977       0.008471
                                                        16.368686       0.000000
                          1       6    5dyz              0.090000      -0.017634
                                                         0.191936       0.032834
                                                         0.750068       1.617531
                                                         2.907977       0.014671
                                                        16.368686       0.000000
                          1       6    5dz2              0.090000      -0.010181
                                                         0.191936       0.018957
                                                         0.750068       0.933882
                                                         2.907977       0.008471
                                                        16.368686       0.000000

                          1       7    5fx3              0.090000       0.003073
                                                         0.191936       0.017866
                                                         0.750068       0.208981
                                                         2.907977      -1.809714
                                                        16.368686       0.000000
                          1       7    5fx2y             0.090000       0.006871
                                                         0.191936       0.039950
                                                         0.750068       0.467295
                                                         2.907977      -4.046643
                                                        16.368686       0.000000
                          1       7    5fx2z             0.090000       0.006871
                                                         0.191936       0.039950
                                                         0.750068       0.467295
                                                         2.907977      -4.046643
                                                        16.368686       0.000000
                          1       7    5fxy2             0.090000       0.006871
                                                         0.191936       0.039950
                                                         0.750068       0.467295
                                                         2.907977      -4.046643
                                                        16.368686       0.000000
                          1       7    5fxyz             0.090000       0.011901
                                                         0.191936       0.069196
                                                         0.750068       0.809378
                                                         2.907977      -7.008992
                                                        16.368686       0.000000
                          1       7    5fxz2             0.090000       0.006871
                                                         0.191936       0.039950
                                                         0.750068       0.467295
                                                         2.907977      -4.046643
                                                        16.368686       0.000000
                          1       7    5fy3              0.090000       0.003073
                                                         0.191936       0.017866
                                                         0.750068       0.208981
                                                         2.907977      -1.809714
                                                        16.368686       0.000000
                          1       7    5fy2z             0.090000       0.006871
                                                         0.191936       0.039950
                                                         0.750068       0.467295
                                                         2.907977      -4.046643
                                                        16.368686       0.000000
                          1       7    5fyz2             0.090000       0.006871
                                                         0.191936       0.039950
                                                         0.750068       0.467295
                                                         2.907977      -4.046643
                                                        16.368686       0.000000
                          1       7    5fz3              0.090000       0.003073
                                                         0.191936       0.017866
                                                         0.750068       0.208981
                                                         2.907977      -1.809714
                                                        16.368686       0.000000

                          2       1    1s                0.293338      -0.001581
                                                         0.941883       0.076823
                                                         5.946538      -1.128731
                                                        19.692604      -3.542509
                                                        76.928143      -3.538410
                                                       340.903325      -2.616043
                                                      2266.118827      -1.088852

                          2       2    2s                0.293338       0.124568
                                                         0.941883       0.386056
                                                         5.946538       0.132815
                                                        19.692604       0.350657
                                                        76.928143       1.294240
                                                       340.903325      -0.343055
                                                      2266.118827       0.730749

                          2       3    3s                0.293338       0.411906
                                                         0.941883      -0.735854
                                                         5.946538      -0.324434
                                                        19.692604      -0.580898
                                                        76.928143      -3.484318
                                                       340.903325       2.878168
                                                      2266.118827      -6.417666

     RI Auxiliary Basis Set             RI_aug-DZVP-MOLOPT-ae_N_RI_033_s_p_d_f_g

       Number of orbital shell sets:                                          13
       Number of orbital shells:                                              13
       Number of primitive Cartesian functions:                               13
       Number of Cartesian basis functions:                                   38
       Number of spherical basis functions:                                   33
       Norm type:                                                              2

       Normalised Cartesian orbitals:

                        Set   Shell   Orbital            Exponent    Coefficient

                          1       1    1s                0.149762       0.171578

                          2       1    2s                0.732943       0.564563

                          3       1   11dx2              0.767837       1.036645
                          3       1   11dxy              0.767837       1.795521
                          3       1   11dxz              0.767837       1.795521
                          3       1   11dy2              0.767837       1.036645
                          3       1   11dyz              0.767837       1.795521
                          3       1   11dz2              0.767837       1.036645

                          4       1    8px               0.853524       1.169392
                          4       1    8py               0.853524       1.169392
                          4       1    8pz               0.853524       1.169392

                          5       1   13fx3              1.248784       2.426893
                          5       1   13fx2y             1.248784       5.426699
                          5       1   13fx2z             1.248784       5.426699
                          5       1   13fxy2             1.248784       5.426699
                          5       1   13fxyz             1.248784       9.399318
                          5       1   13fxz2             1.248784       5.426699
                          5       1   13fy3              1.248784       2.426893
                          5       1   13fy2z             1.248784       5.426699
                          5       1   13fyz2             1.248784       5.426699
                          5       1   13fz3              1.248784       2.426893

                          6       1    9px               1.612728       2.590547
                          6       1    9py               1.612728       2.590547
                          6       1    9pz               1.612728       2.590547

                          7       1    3s                2.196070       1.285715

                          8       1   12dx2              2.738238       9.593655
                          8       1   12dxy              2.738238      16.616698
                          8       1   12dxz              2.738238      16.616698
                          8       1   12dy2              2.738238       9.593655
                          8       1   12dyz              2.738238      16.616698
                          8       1   12dz2              2.738238       9.593655

                          9       1    4s                6.385151       2.862783

                         10       1   10px              17.302177      50.299773
                         10       1   10py              17.302177      50.299773
                         10       1   10pz              17.302177      50.299773

                         11       1    5s               18.792757       6.432843

                         12       1    6s               55.332911      14.459315

                         13       1    7s              162.836104      32.488011

       Atomic covalent radius [Angstrom]:                                  0.730

       Atomic van der Waals radius [Angstrom]:                             1.520

     The atoms of this atomic kind are PAW atoms (GAPW):
       Hard Gaussian function radius:                                      1.512
       Rho0 radius:                                                        1.512
       Maximum GTO radius used for PAW projector construction:            24.566

     GAPW Soft Basis Set                                 aug-DZVP-MOLOPT-ae_soft

       Number of orbital shell sets:                                           2
       Number of orbital shells:                                              10
       Number of primitive Cartesian functions:                                6
       Number of Cartesian basis functions:                                   35
       Number of spherical basis functions:                                   30
       Norm type:                                                              2

       Normalised Cartesian orbitals:

                        Set   Shell   Orbital            Exponent    Coefficient

                          1       1    2s                0.090000       0.120905
                                                         0.191936      -0.019521
                                                         0.750068       0.059582
                                                         2.907977       0.000000

                          1       2    3px               0.090000       0.000000
                                                         0.191936       0.023686
                                                         0.750068       0.626550
                                                         2.907977       2.082711
                          1       2    3py               0.090000       0.000000
                                                         0.191936       0.023686
                                                         0.750068       0.626550
                                                         2.907977       2.082711
                          1       2    3pz               0.090000       0.000000
                                                         0.191936       0.023686
                                                         0.750068       0.626550
                                                         2.907977       2.082711

                          1       3    4px               0.090000       0.000000
                                                         0.191936       0.196557
                                                         0.750068      -0.157257
                                                         2.907977      -0.566756
                          1       3    4py               0.090000       0.000000
                                                         0.191936       0.196557
                                                         0.750068      -0.157257
                                                         2.907977      -0.566756
                          1       3    4pz               0.090000       0.000000
                                                         0.191936       0.196557
                                                         0.750068      -0.157257
                                                         2.907977      -0.566756

                          1       4    5px               0.090000       0.020606
                                                         0.191936       0.124186
                                                         0.750068       0.098287
                                                         2.907977       0.000000
                          1       4    5py               0.090000       0.020606
                                                         0.191936       0.124186
                                                         0.750068       0.098287
                                                         2.907977       0.000000
                          1       4    5pz               0.090000       0.020606
                                                         0.191936       0.124186
                                                         0.750068       0.098287
                                                         2.907977       0.000000

                          1       5    4dx2              0.090000       0.000000
                                                         0.191936       0.030414
                                                         0.750068       0.724129
                                                         2.907977       1.586204
                          1       5    4dxy              0.090000       0.000000
                                                         0.191936       0.052678
                                                         0.750068       1.254227
                                                         2.907977       2.747386
                          1       5    4dxz              0.090000       0.000000
                                                         0.191936       0.052678
                                                         0.750068       1.254227
                                                         2.907977       2.747386
                          1       5    4dy2              0.090000       0.000000
                                                         0.191936       0.030414
                                                         0.750068       0.724129
                                                         2.907977       1.586204
                          1       5    4dyz              0.090000       0.000000
                                                         0.191936       0.052678
                                                         0.750068       1.254227
                                                         2.907977       2.747386
                          1       5    4dz2              0.090000       0.000000
                                                         0.191936       0.030414
                                                         0.750068       0.724129
                                                         2.907977       1.586204

                          1       6    5dx2              0.090000      -0.010181
                                                         0.191936       0.018957
                                                         0.750068       0.933882
                                                         2.907977       0.008471
                          1       6    5dxy              0.090000      -0.017634
                                                         0.191936       0.032834
                                                         0.750068       1.617531
                                                         2.907977       0.014671
                          1       6    5dxz              0.090000      -0.017634
                                                         0.191936       0.032834
                                                         0.750068       1.617531
                                                         2.907977       0.014671
                          1       6    5dy2              0.090000      -0.010181
                                                         0.191936       0.018957
                                                         0.750068       0.933882
                                                         2.907977       0.008471
                          1       6    5dyz              0.090000      -0.017634
                                                         0.191936       0.032834
                                                         0.750068       1.617531
                                                         2.907977       0.014671
                          1       6    5dz2              0.090000      -0.010181
                                                         0.191936       0.018957
                                                         0.750068       0.933882
                                                         2.907977       0.008471

                          1       7    5fx3              0.090000       0.003073
                                                         0.191936       0.017866
                                                         0.750068       0.208981
                                                         2.907977      -1.809714
                          1       7    5fx2y             0.090000       0.006871
                                                         0.191936       0.039950
                                                         0.750068       0.467295
                                                         2.907977      -4.046643
                          1       7    5fx2z             0.090000       0.006871
                                                         0.191936       0.039950
                                                         0.750068       0.467295
                                                         2.907977      -4.046643
                          1       7    5fxy2             0.090000       0.006871
                                                         0.191936       0.039950
                                                         0.750068       0.467295
                                                         2.907977      -4.046643
                          1       7    5fxyz             0.090000       0.011901
                                                         0.191936       0.069196
                                                         0.750068       0.809378
                                                         2.907977      -7.008992
                          1       7    5fxz2             0.090000       0.006871
                                                         0.191936       0.039950
                                                         0.750068       0.467295
                                                         2.907977      -4.046643
                          1       7    5fy3              0.090000       0.003073
                                                         0.191936       0.017866
                                                         0.750068       0.208981
                                                         2.907977      -1.809714
                          1       7    5fy2z             0.090000       0.006871
                                                         0.191936       0.039950
                                                         0.750068       0.467295
                                                         2.907977      -4.046643
                          1       7    5fyz2             0.090000       0.006871
                                                         0.191936       0.039950
                                                         0.750068       0.467295
                                                         2.907977      -4.046643
                          1       7    5fz3              0.090000       0.003073
                                                         0.191936       0.017866
                                                         0.750068       0.208981
                                                         2.907977      -1.809714

                          2       1    1s                0.293338      -0.001581
                                                         0.941883       0.076823

                          2       2    2s                0.293338       0.124568
                                                         0.941883       0.386056

                          2       3    3s                0.293338       0.411906
                                                         0.941883      -0.735854

     AE Potential information for                                            ALL

       Description:                                       All-electron potential
                                          Krack, Parrinello, PCCP 2, 2105 (2000)

       Gaussian exponent of the core charge distribution:               8.154466
       Electronic configuration (s p d ...):                           4   4   0


 MOLECULE KIND INFORMATION


 All atoms are their own molecule, skipping detailed information


 TOTAL NUMBERS AND MAXIMUM NUMBERS

  Total number of            - Atomic kinds:                                   4
                             - Atoms:                                         15
                             - Shell sets:                                    25
                             - Shells:                                       125
                             - Primitive Cartesian functions:                151
                             - Cartesian basis functions:                    395
                             - Spherical basis functions:                    345

  Maximum angular momentum of the orbital basis functions:                     3


 MODULE QUICKSTEP: ATOMIC COORDINATES IN ANGSTROM

   Atom Kind Element         X             Y             Z       Z(eff)     Mass
      1    1 C     6     13.428080     14.575555     13.865351   6.0000  12.0107
      2    2 H     1     12.873564     14.797538     12.955019   1.0000   1.0079
      3    3 N     7     12.963692     13.596488     14.594555   7.0000  14.0067
      4    3 N     7     13.665391     13.325582     15.733721   7.0000  14.0067
      5    2 H     1     13.295233     12.563003     16.291230   1.0000   1.0079
      6    1 C     6     14.801298     13.934258     16.236440   6.0000  12.0107
      7    4 O     8     15.352536     13.609418     17.274167   8.0000  15.9994
      8    3 N     7     15.241145     14.974603     15.401358   7.0000  14.0067
      9    1 C     6     16.328918     15.788683     15.586610   6.0000  12.0107
     10    2 H     1     16.961666     15.667181     16.456350   1.0000   1.0079
     11    1 C     6     16.376522     16.666335     14.516300   6.0000  12.0107
     12    2 H     1     17.126436     17.436997     14.375788   1.0000   1.0079
     13    1 C     6     14.583455     15.324744     14.210501   6.0000  12.0107
     14    1 C     6     15.290316     16.383260     13.652698   6.0000  12.0107
     15    2 H     1     15.041954     16.888073     12.725833   1.0000   1.0079



 SCF PARAMETERS         Density guess:                                    ATOMIC
                        --------------------------------------------------------
                        max_scf:                                             500
                        max_scf_history:                                       0
                        max_diis:                                              4
                        --------------------------------------------------------
                        eps_scf:                                        1.00E-06
                        eps_scf_history:                                0.00E+00
                        eps_diis:                                       1.00E-01
                        eps_eigval:                                     1.00E-05
                        --------------------------------------------------------
                        level_shift [a.u.]:                             0.000000
                        added MOs                                       310    0
                        --------------------------------------------------------
                        Mixing method:                            BROYDEN_MIXING
                                                charge density mixing in g-space
                        --------------------------------------------------------
                        No outer SCF

 PW_GRID| Information for grid number                                          1
 PW_GRID| Grid distributed over                                   192 processors
 PW_GRID| Real space group dimensions                                   192    1
 PW_GRID| the grid is blocked:                                                NO
 PW_GRID| Cutoff [a.u.]                                                    250.0
 PW_GRID| spherical cutoff:                                                   NO
 PW_GRID|   Bounds   1           -202     202                Points:         405
 PW_GRID|   Bounds   2           -202     202                Points:         405
 PW_GRID|   Bounds   3           -202     202                Points:         405
 PW_GRID| Volume element (a.u.^3)  0.2743E-02     Volume (a.u.^3)    182205.0337
 PW_GRID| Grid span                                                    FULLSPACE
 PW_GRID|   Distribution                         Average         Max         Min
 PW_GRID|   G-Vectors                           345990.2      346275      345870
 PW_GRID|   G-Rays                                 854.3         855         854
 PW_GRID|   Real Space Points                   345990.2      492075      328050

 PW_GRID| Information for grid number                                          2
 PW_GRID| Number of the reference grid                                         1
 PW_GRID| Grid distributed over                                   192 processors
 PW_GRID| Real space group dimensions                                   192    1
 PW_GRID| the grid is blocked:                                                NO
 PW_GRID| Cutoff [a.u.]                                                     83.3
 PW_GRID| spherical cutoff:                                                   NO
 PW_GRID|   Bounds   1           -120     119                Points:         240
 PW_GRID|   Bounds   2           -120     119                Points:         240
 PW_GRID|   Bounds   3           -120     119                Points:         240
 PW_GRID| Volume element (a.u.^3)  0.1318E-01     Volume (a.u.^3)    182205.0337
 PW_GRID| Grid span                                                    FULLSPACE
 PW_GRID|   Distribution                         Average         Max         Min
 PW_GRID|   G-Vectors                            72000.0       72240       71760
 PW_GRID|   G-Rays                                 300.0         301         299
 PW_GRID|   Real Space Points                    72000.0      115200       57600

 PW_GRID| Information for grid number                                          3
 PW_GRID| Number of the reference grid                                         1
 PW_GRID| Grid distributed over                                   192 processors
 PW_GRID| Real space group dimensions                                    12   16
 PW_GRID| the grid is blocked:                                                NO
 PW_GRID| Cutoff [a.u.]                                                     27.8
 PW_GRID| spherical cutoff:                                                   NO
 PW_GRID|   Bounds   1            -67      67                Points:         135
 PW_GRID|   Bounds   2            -67      67                Points:         135
 PW_GRID|   Bounds   3            -67      67                Points:         135
 PW_GRID| Volume element (a.u.^3)  0.7406E-01     Volume (a.u.^3)    182205.0337
 PW_GRID| Grid span                                                    FULLSPACE
 PW_GRID|   Distribution                         Average         Max         Min
 PW_GRID|   G-Vectors                            12814.5       12960       12690
 PW_GRID|   G-Rays                                  94.9          96          94
 PW_GRID|   Real Space Points                    12814.5       14580       11880

 PW_GRID| Information for grid number                                          4
 PW_GRID| Number of the reference grid                                         1
 PW_GRID| Grid distributed over                                   192 processors
 PW_GRID| Real space group dimensions                                    12   16
 PW_GRID| the grid is blocked:                                                NO
 PW_GRID| Cutoff [a.u.]                                                      9.3
 PW_GRID| spherical cutoff:                                                   NO
 PW_GRID|   Bounds   1            -40      39                Points:          80
 PW_GRID|   Bounds   2            -40      39                Points:          80
 PW_GRID|   Bounds   3            -40      39                Points:          80
 PW_GRID| Volume element (a.u.^3)  0.3559         Volume (a.u.^3)    182205.0337
 PW_GRID| Grid span                                                    FULLSPACE
 PW_GRID|   Distribution                         Average         Max         Min
 PW_GRID|   G-Vectors                             2666.7        2800        2560
 PW_GRID|   G-Rays                                  33.3          35          32
 PW_GRID|   Real Space Points                     2666.7        2800        2400

 POISSON| Solver                                                         WAVELET
 POISSON| Wavelet| Scaling function                                           40
 POISSON| Periodicity                                                       NONE

 RS_GRID| Information for grid number                                          1
 RS_GRID|   Bounds   1           -202     202                Points:         405
 RS_GRID|   Bounds   2           -202     202                Points:         405
 RS_GRID|   Bounds   3           -202     202                Points:         405
 RS_GRID| Real space distribution over                                  4 groups
 RS_GRID| Real space distribution along direction                              1
 RS_GRID| Border size                                                         37
 RS_GRID| Real space distribution over                                  6 groups
 RS_GRID| Real space distribution along direction                              2
 RS_GRID| Border size                                                         37
 RS_GRID| Real space distribution over                                  8 groups
 RS_GRID| Real space distribution along direction                              3
 RS_GRID| Border size                                                         37
 RS_GRID|   Distribution                         Average         Max         Min
 RS_GRID|   Planes                                 175.2         176         175
 RS_GRID|   Distribution                         Average         Max         Min
 RS_GRID|   Planes                                 141.5         142         141
 RS_GRID|   Distribution                         Average         Max         Min
 RS_GRID|   Planes                                 124.6         125         124

 RS_GRID| Information for grid number                                          2
 RS_GRID|   Bounds   1           -120     119                Points:         240
 RS_GRID|   Bounds   2           -120     119                Points:         240
 RS_GRID|   Bounds   3           -120     119                Points:         240
 RS_GRID| Real space distribution over                                  4 groups
 RS_GRID| Real space distribution along direction                              1
 RS_GRID| Border size                                                         38
 RS_GRID| Real space distribution over                                  6 groups
 RS_GRID| Real space distribution along direction                              2
 RS_GRID| Border size                                                         38
 RS_GRID| Real space distribution over                                  8 groups
 RS_GRID| Real space distribution along direction                              3
 RS_GRID| Border size                                                         38
 RS_GRID|   Distribution                         Average         Max         Min
 RS_GRID|   Planes                                 136.0         136         136
 RS_GRID|   Distribution                         Average         Max         Min
 RS_GRID|   Planes                                 116.0         116         116
 RS_GRID|   Distribution                         Average         Max         Min
 RS_GRID|   Planes                                 106.0         106         106

 RS_GRID| Information for grid number                                          3
 RS_GRID|   Bounds   1            -67      67                Points:         135
 RS_GRID|   Bounds   2            -67      67                Points:         135
 RS_GRID|   Bounds   3            -67      67                Points:         135
 RS_GRID| Real space fully replicated
 RS_GRID| Group size                                                           1

 RS_GRID| Information for grid number                                          4
 RS_GRID|   Bounds   1            -40      39                Points:          80
 RS_GRID|   Bounds   2            -40      39                Points:          80
 RS_GRID|   Bounds   3            -40      39                Points:          80
 RS_GRID| Real space fully replicated
 RS_GRID| Group size                                                           1

  HFX_INFO| Replica ID:                                                        1
  HFX_INFO| FRACTION:                                               0.2500000000
  HFX_INFO| Interaction Potential:                                       COULOMB
  HFX_INFO| EPS_SCHWARZ:                                                 1.0E-10
  HFX_INFO| EPS_SCHWARZ_FORCES                                           1.0E-08
  HFX_INFO| EPS_STORAGE_SCALING:                                         1.0E+00
  HFX_INFO| NBINS:                                                            64
  HFX_INFO| BLOCK_SIZE:                                                        1
  HFX_INFO| Number of periodic shells considered:                           NONE
  HFX_INFO| Number of periodic cells considered:                            NONE


 OVERLAP MATRIX CONDITION NUMBER
 1-Norm Condition Number (Estimate)
   CN : |A|*|A^-1|:  3.525E+001 *  4.942E+004   = 1.742E+006  Log(1-CN):  6.2411
 1-Norm and 2-Norm Condition Numbers using Diagonalization
   CN : |A|*|A^-1|:  3.525E+001 *  7.001E+004   = 2.468E+006  Log(1-CN):  6.3923
   CN : max/min ev:  1.188E+001 /  4.477E-005   = 2.654E+005  Log(2-CN):  5.4239

 Extrapolation method: initial_guess

 Atomic guess: The first density matrix is obtained in terms of atomic orbitals
               and electronic configurations assigned to each atomic kind

 Guess for atomic kind: C

 Electronic structure
    Total number of core electrons                                          0.00
    Total number of valence electrons                                       6.00
    Total number of electrons                                               6.00
    Multiplicity                                                   not specified
    S      2.00  2.00
    P      2.00


 *******************************************************************************
                  Iteration          Convergence                     Energy [au]
 *******************************************************************************
                          1        0.133902                     -37.363061759844
                          2        0.102325                     -37.368472442707
                          3        0.860737E-03                 -37.376215693871
                          4        0.849047E-04                 -37.376216293501
                          5        0.219397E-06                 -37.376216298714

 Energy components [Hartree]           Total Energy ::          -37.376216298714
                                        Band Energy ::          -21.245708131867
                                     Kinetic Energy ::           37.464666877769
                                   Potential Energy ::          -74.840883176484
                                      Virial (-V/T) ::            1.997639093407
                                        Core Energy ::          -50.271057779086
                                          XC Energy ::           -4.736056292831
                                     Coulomb Energy ::           17.630897773203

 Orbital energies  State     L     Occupation   Energy[a.u.]          Energy[eV]

                       1     0          2.000      -9.941022         -270.508975
                       2     0          2.000      -0.490185          -13.338601

                       1     1          2.000      -0.191647           -5.214984


 Total Electron Density at R=0:                                       116.283880

 Guess for atomic kind: H

 Electronic structure
    Total number of core electrons                                          0.00
    Total number of valence electrons                                       1.00
    Total number of electrons                                               1.00
    Multiplicity                                                   not specified
    S      1.00


 *******************************************************************************
                  Iteration          Convergence                     Energy [au]
 *******************************************************************************
                          1        0.100530E-01                  -0.443985550189
                          2        0.945329E-03                  -0.444090029920
                          3        0.103025E-03                  -0.444092117382
                          4        0.802727E-07                  -0.444092129626

 Energy components [Hartree]           Total Energy ::           -0.444092129626
                                        Band Energy ::           -0.233486998571
                                     Kinetic Energy ::            0.420413643923
                                   Potential Energy ::           -0.864505773549
                                      Virial (-V/T) ::            2.056321877382
                                        Core Energy ::           -0.493965249450
                                          XC Energy ::           -0.230662915809
                                     Coulomb Energy ::            0.280536035634

 Orbital energies  State     L     Occupation   Energy[a.u.]          Energy[eV]

                       1     0          1.000      -0.233487           -6.353504


 Total Electron Density at R=0:                                         0.246678

 Guess for atomic kind: N

 Electronic structure
    Total number of core electrons                                          0.00
    Total number of valence electrons                                       7.00
    Total number of electrons                                               7.00
    Multiplicity                                                   not specified
    S      2.00  2.00
    P      3.00


 *******************************************************************************
                  Iteration          Convergence                     Energy [au]
 *******************************************************************************
                          1        0.369390                     -53.855844969821
                          2        0.273078                     -53.870170065147
                          3        0.611788E-02                 -53.916370559561
                          4        0.258022E-03                 -53.916388709621
                          5        0.100264E-04                 -53.916388753242
                          6        0.664221E-07                 -53.916388753301

 Energy components [Hartree]           Total Energy ::          -53.916388753301
                                        Band Energy ::          -30.277671893433
                                     Kinetic Energy ::           53.943449639882
                                   Potential Energy ::         -107.859838393183
                                      Virial (-V/T) ::            1.999498347125
                                        Core Energy ::          -73.381511064535
                                          XC Energy ::           -6.114835262346
                                     Coulomb Energy ::           25.579957573581

 Orbital energies  State     L     Occupation   Energy[a.u.]          Energy[eV]

                       1     0          2.000     -14.050793         -382.341534
                       2     0          2.000      -0.664480          -18.081407

                       1     1          3.000      -0.282375           -7.683823


 Total Electron Density at R=0:                                       189.469012

 Guess for atomic kind: O

 Electronic structure
    Total number of core electrons                                          0.00
    Total number of valence electrons                                       8.00
    Total number of electrons                                               8.00
    Multiplicity                                                   not specified
    S      2.00  2.00
    P      4.00


 *******************************************************************************
                  Iteration          Convergence                     Energy [au]
 *******************************************************************************
                          1        0.848674                     -74.203659346590
                          2        0.676538                     -74.224350300929
                          3        0.118146E-01                 -74.325384117638
                          4        0.875023E-03                 -74.325411956579
                          5        0.262407E-04                 -74.325412100097
                          6        0.953985E-07                 -74.325412100225

 Energy components [Hartree]           Total Energy ::          -74.325412100225
                                        Band Energy ::          -40.703914598336
                                     Kinetic Energy ::           74.466117831459
                                   Potential Energy ::         -148.791529931684
                                      Virial (-V/T) ::            1.998110473121
                                        Core Energy ::         -102.666843544964
                                          XC Energy ::           -7.743421966388
                                     Coulomb Energy ::           36.084853411128

 Orbital energies  State     L     Occupation   Energy[a.u.]          Energy[eV]

                       1     0          2.000     -18.799663         -511.564844
                       2     0          2.000      -0.852501          -23.197720

                       1     1          4.000      -0.349897           -9.521179


 Total Electron Density at R=0:                                       292.094851
 Re-scaling the density matrix to get the right number of electrons
                  # Electrons              Trace(P)               Scaling factor
                           70                70.000                        1.000

 Number of electrons:                                                         70
 Number of occupied orbitals:                                                 35
 Number of molecular orbitals:                                               345

 Number of orbital functions:                                                345
 Number of independent orbital functions:                                    345


 SCF WAVEFUNCTION OPTIMIZATION

  Step     Update method      Time    Convergence         Total energy    Change
  ------------------------------------------------------------------------------

  HFX_MEM_INFO| Est. max. program size before HFX [MiB]:                     779
  HFX_MEM_INFO| Number of cart. primitive ERI's calculated:         217635130539
  HFX_MEM_INFO| Number of sph. ERI's calculated:                      2085929820
  HFX_MEM_INFO| Number of sph. ERI's stored in-core:                  2085929820
  HFX_MEM_INFO| Number of sph. ERI's stored on disk:                           0
  HFX_MEM_INFO| Number of sph. ERI's calculated on the fly:                    0
  HFX_MEM_INFO| Total memory consumption ERI's RAM [MiB]:                   7482
  HFX_MEM_INFO| Whereof max-vals [MiB]:                                        6
  HFX_MEM_INFO| Total compression factor ERI's RAM:                         2.13
  HFX_MEM_INFO| Total memory consumption ERI's disk [MiB]:                     0
  HFX_MEM_INFO| Total compression factor ERI's disk:                        0.00
  HFX_MEM_INFO| Size of density/Fock matrix [MiB]:                             0
  HFX_MEM_INFO| Size of buffers [MiB]:                                        16
  HFX_MEM_INFO| Est. max. program size after HFX  [MiB]:                    1341

     1 NoMix/Diag. 0.10E+00   16.5     9.33159650      -473.1801884601 -4.73E+02
     2 Broy./Diag. 0.10E+00    1.6     0.61919426      -463.3935838880  9.79E+00
     3 Broy./Diag. 0.10E+00    1.7     0.04775698      -462.9682659763  4.25E-01
     4 Broy./Diag. 0.10E+00    1.4     0.91006508      -465.3236113656 -2.36E+00
     5 Broy./Diag. 0.10E+00    1.7     0.09768297      -467.2464430181 -1.92E+00
     6 Broy./Diag. 0.10E+00    1.7     0.06424034      -467.0792763975  1.67E-01
     7 Broy./Diag. 0.10E+00    1.5     0.51257720      -467.9819200024 -9.03E-01
     8 Broy./Diag. 0.10E+00    1.7     0.03442248      -468.9015850500 -9.20E-01
     9 Broy./Diag. 0.10E+00    1.7     0.11058960      -468.9001622799  1.42E-03
    10 Broy./Diag. 0.10E+00    1.5     0.03406400      -469.0433781006 -1.43E-01
    11 Broy./Diag. 0.10E+00    1.6     0.03401441      -469.1942281456 -1.51E-01
    12 Broy./Diag. 0.10E+00    1.5     0.19974524      -469.9830022851 -7.89E-01
    13 Broy./Diag. 0.10E+00    1.8     0.02805485      -470.9245253117 -9.42E-01
    14 Broy./Diag. 0.10E+00    1.6     0.09107792      -470.8847034838  3.98E-02
    15 Broy./Diag. 0.10E+00    1.5     0.27248458      -470.5031906366  3.82E-01
    16 Broy./Diag. 0.10E+00    1.7     0.12246292      -470.1334103633  3.70E-01
    17 Broy./Diag. 0.10E+00    1.7     0.07374403      -470.0194592978  1.14E-01
    18 Broy./Diag. 0.10E+00    1.5     0.00685192      -470.0508171755 -3.14E-02
    19 Broy./Diag. 0.10E+00    1.6     0.18747686      -470.1716870448 -1.21E-01
    20 Broy./Diag. 0.10E+00    1.3     0.13755937      -470.3317971390 -1.60E-01
    21 Broy./Diag. 0.10E+00    1.7     0.02814417      -470.2126808930  1.19E-01
    22 Broy./Diag. 0.10E+00    1.6     0.04434742      -470.1729562709  3.97E-02
    23 Broy./Diag. 0.10E+00    1.5     0.01264680      -470.2051713491 -3.22E-02
    24 Broy./Diag. 0.10E+00    1.6     0.01017171      -470.2036616096  1.51E-03
    25 Broy./Diag. 0.10E+00    1.6     0.00608974      -470.1873635843  1.63E-02
    26 Broy./Diag. 0.10E+00    1.3     0.00516942      -470.1756470018  1.17E-02
    27 Broy./Diag. 0.10E+00    1.5     0.00858948      -470.1821135611 -6.47E-03
    28 Broy./Diag. 0.10E+00    1.3     0.00491341      -470.2032320057 -2.11E-02
    29 Broy./Diag. 0.10E+00    1.6     0.00846727      -470.2135921073 -1.04E-02
    30 Broy./Diag. 0.10E+00    1.6     0.00629205      -470.2240814518 -1.05E-02
    31 Broy./Diag. 0.10E+00    1.5     0.00146912      -470.2202972294  3.78E-03
    32 Broy./Diag. 0.10E+00    1.7     0.00229700      -470.2104102153  9.89E-03
    33 Broy./Diag. 0.10E+00    1.7     0.00455535      -470.2136580571 -3.25E-03
    34 Broy./Diag. 0.10E+00    1.3     0.00152119      -470.2138893221 -2.31E-04
    35 Broy./Diag. 0.10E+00    1.5     0.00066131      -470.2048696379  9.02E-03
    36 Broy./Diag. 0.10E+00    1.3     0.00394855      -470.2060261289 -1.16E-03
    37 Broy./Diag. 0.10E+00    1.6     0.00129657      -470.2124800009 -6.45E-03
    38 Broy./Diag. 0.10E+00    1.7     0.00113625      -470.2118734283  6.07E-04
    39 Broy./Diag. 0.10E+00    1.5     0.00080061      -470.2110146387  8.59E-04
    40 Broy./Diag. 0.10E+00    1.6     0.00099953      -470.2110019986  1.26E-05
    41 Broy./Diag. 0.10E+00    1.8     0.00075727      -470.2127551578 -1.75E-03
    42 Broy./Diag. 0.10E+00    1.3     0.00033450      -470.2160876947 -3.33E-03
    43 Broy./Diag. 0.10E+00    1.6     0.00061914      -470.2155273348  5.60E-04
    44 Broy./Diag. 0.10E+00    1.4     0.00067402      -470.2137502255  1.78E-03
    45 Broy./Diag. 0.10E+00    1.7     0.00046489      -470.2128026957  9.48E-04
    46 Broy./Diag. 0.10E+00    1.6     0.00077692      -470.2129783221 -1.76E-04
    47 Broy./Diag. 0.10E+00    1.5     0.00053461      -470.2142440291 -1.27E-03
    48 Broy./Diag. 0.10E+00    1.6     0.00029264      -470.2140115904  2.32E-04
    49 Broy./Diag. 0.10E+00    1.6     0.00016852      -470.2129968336  1.01E-03
    50 Broy./Diag. 0.10E+00    1.4     0.00045251      -470.2129422280  5.46E-05
    51 Broy./Diag. 0.10E+00    1.6     0.00021205      -470.2133639148 -4.22E-04
    52 Broy./Diag. 0.10E+00    1.5     0.00016499      -470.2132234481  1.40E-04
    53 Broy./Diag. 0.10E+00    1.8     0.00012297      -470.2131287029  9.47E-05
    54 Broy./Diag. 0.10E+00    1.6     0.00017008      -470.2130998195  2.89E-05
    55 Broy./Diag. 0.10E+00    1.5     0.00012941      -470.2131262852 -2.65E-05
    56 Broy./Diag. 0.10E+00    1.7     0.00019378      -470.2129292436  1.97E-04
    57 Broy./Diag. 0.10E+00    1.7     0.00020186      -470.2125951900  3.34E-04
    58 Broy./Diag. 0.10E+00    1.4     0.00010306      -470.2127305192 -1.35E-04
    59 Broy./Diag. 0.10E+00    1.6     0.00006737      -470.2126414014  8.91E-05
    60 Broy./Diag. 0.10E+00    1.4     0.00004223      -470.2124763527  1.65E-04
    61 Broy./Diag. 0.10E+00    1.8     0.00014180      -470.2125796601 -1.03E-04
    62 Broy./Diag. 0.10E+00    1.6     0.00002592      -470.2126400327 -6.04E-05
    63 Broy./Diag. 0.10E+00    1.5     0.00005142      -470.2126277512  1.23E-05
    64 Broy./Diag. 0.10E+00    1.7     0.00020902      -470.2126520156 -2.43E-05
    65 Broy./Diag. 0.10E+00    1.6     0.00002822      -470.2127192945 -6.73E-05
    66 Broy./Diag. 0.10E+00    1.4     0.00002223      -470.2127324418 -1.31E-05
    67 Broy./Diag. 0.10E+00    1.6     0.00008847      -470.2127042464  2.82E-05
    68 Broy./Diag. 0.10E+00    1.4     0.00001247      -470.2126500237  5.42E-05
    69 Broy./Diag. 0.10E+00    1.7     0.00000675      -470.2126692585 -1.92E-05
    70 Broy./Diag. 0.10E+00    1.7     0.00003367      -470.2126920780 -2.28E-05
    71 Broy./Diag. 0.10E+00    1.7     0.00002053      -470.2126559836  3.61E-05
    72 Broy./Diag. 0.10E+00    1.7     0.00000807      -470.2126488431  7.14E-06
    73 Broy./Diag. 0.10E+00    1.6     0.00000457      -470.2126578379 -8.99E-06
    74 Broy./Diag. 0.10E+00    1.4     0.00001308      -470.2126554289  2.41E-06
    75 Broy./Diag. 0.10E+00    1.6     0.00001066      -470.2126553280  1.01E-07
    76 Broy./Diag. 0.10E+00    1.4     0.00000554      -470.2126501703  5.16E-06
    77 Broy./Diag. 0.10E+00    1.6     0.00000627      -470.2126461953  3.98E-06
    78 Broy./Diag. 0.10E+00    1.6     0.00000404      -470.2126534899 -7.29E-06
    79 Broy./Diag. 0.10E+00    1.5     0.00000349      -470.2126598153 -6.33E-06
    80 Broy./Diag. 0.10E+00    1.7     0.00000475      -470.2126561287  3.69E-06
    81 Broy./Diag. 0.10E+00    1.7     0.00000569      -470.2126522059  3.92E-06
    82 Broy./Diag. 0.10E+00    1.4     0.00000130      -470.2126578192 -5.61E-06
    83 Broy./Diag. 0.10E+00    1.6     0.00000098      -470.2126614794 -3.66E-06

  *** SCF run converged in    83 steps ***


  Electronic density on regular grids:        -52.0126467119       17.9873532881
  Core density on regular grids:               70.0000000000       -0.0000000000
  Hard and soft densities (Lebedev):         -525.9388297421     -507.9514760252
  Total Rho_soft + Rho1_hard - Rho1_soft      -70.0000004288
  Total charge density (r-space):              -0.0000004288
  Total Rho_soft + Rho0_soft (g-space):        -0.0000006700

  Overlap energy of the core charge distribution:               0.00001146122648
  Self energy of the core charge distribution:               -398.03769996607656
  Core Hamiltonian energy:                                    -69.87332045120029
  Hartree energy:                                             145.53296252934035
  Exchange-correlation energy:                                -19.10802767808774
  Hartree-Fock Exchange energy:                               -15.18445725330178

  GAPW| Exc from hard and soft atomic rho1:                   -28.80663715891788
  GAPW| local Eh = 1 center integrals:                        -84.73549296239992

  Total energy:                                              -470.21266147941736

 !-----------------------------------------------------------------------------!
                     Mulliken Population Analysis

 #  Atom  Element  Kind  Atomic population                           Net charge
       1     C        1          5.652722                              0.347278
       2     H        2          0.857323                              0.142677
       3     N        3          8.305102                             -1.305102
       4     N        3          7.012771                             -0.012771
       5     H        2          0.014768                              0.985232
       6     C        1          4.519847                              1.480153
       7     O        4          9.681569                             -1.681569
       8     N        3          7.598720                             -0.598720
       9     C        1          5.811484                              0.188516
      10     H        2          0.837874                              0.162126
      11     C        1          6.042257                             -0.042257
      12     H        2          0.913865                              0.086135
      13     C        1          5.852375                              0.147625
      14     C        1          6.033909                             -0.033909
      15     H        2          0.865414                              0.134586
 # Total charge                             70.000000                  0.000000

 !-----------------------------------------------------------------------------!

 !-----------------------------------------------------------------------------!
                           Hirshfeld Charges

  #Atom  Element  Kind  Ref Charge     Population                    Net charge
      1       C      1       6.000          6.339                        -0.339
      2       H      2       1.000          0.501                         0.499
      3       N      3       7.000          7.227                        -0.227
      4       N      3       7.000          7.457                        -0.457
      5       H      2       1.000          0.434                         0.566
      6       C      1       6.000          5.576                         0.424
      7       O      4       8.000          8.497                        -0.497
      8       N      3       7.000          7.120                        -0.120
      9       C      1       6.000          6.387                        -0.387
     10       H      2       1.000          0.489                         0.511
     11       C      1       6.000          6.501                        -0.501
     12       H      2       1.000          0.498                         0.502
     13       C      1       6.000          5.950                         0.050
     14       C      1       6.000          6.511                        -0.511
     15       H      2       1.000          0.497                         0.503

  Total Charge                                                            0.018
 !-----------------------------------------------------------------------------!
  
 -------------------------------------------------------------------------------
 -                                                                             -
 -                          BANDSTRUCTURE CALCULATION                          -
 -                                                                             -
 -------------------------------------------------------------------------------
  
 Number of occupied molecular orbitals (MOs) = Number of occupied bands       35
 Number of unoccupied (= virtual) MOs = Number of unoccupied bands           310
 Number of Gaussian basis functions for MOs                                  345
 K-point mesh for the density of states (DOS) and the self-energy      1   1   1
  
 -------------------------------------------------------------------------------
 -                                                                             -
 -                                GW CALCULATION                               -
 -                                                                             -
 -------------------------------------------------------------------------------
  
 Input: Number of time/freq. points                                           30
 Input: ω_max for fitting Σ(iω) (eV)                                        10.0
 Input: Filter threshold for sparse tensor operations                    1.0E-11
 Input: Apply Hedin shift                                                      F
  
 Number of auxiliary Gaussian basis functions for χ, ε, W                    259
 Cutoff radius for the truncated Coulomb operator in Σ^x:               2645.9 Å
 Cutoff radius for the truncated Coulomb operator in RI metric:            3.0 Å
 Regularization parameter of RI                                          1.0E-02
 Regularization parameter of minimax grids                               1.0E-06
 Lattice sum size for V(k):                                                    3
  
 K-point mesh 1 for χ, ε, W                                            1   1   1
 K-point mesh 2 for χ, ε, W (for k-point extrapolation of W)           1   1   1
 Approximate the k-point extrapolation                                         F
 Group size for tensor operations                                            192
 
 Computed 3-center integrals (µν|P), execution time                        0.2 s
 Percentage of non-zero (µν|P)                                         100.000 %
 Max. distance between µ,ν in non-zero (µν|P)                              6.5 A
 Required memory if storing all 3-center integrals (µν|P)                   0 GB
 
 Number of i and j atoms in M_λνP(τ), N_νλQ(τ):                              234
 Number of inner loop atoms for µ in M_λνP = sum_µ (µν|P) G_µλ                15
 
 SCF direct band gap (eV)                                                   5.10
 Max. SCF eigval diff. (eV)                                             56189.72
 E-Range for minimax grid                                               11017.80
 Number of Padé parameters for analytic continuation:                          5
 
 Computed χ(iτ,k=0) for time point            1 / 30,    Execution time    0.2 s
 Computed χ(iτ,k=0) for time point            2 / 30,    Execution time    0.1 s
 Computed χ(iτ,k=0) for time point            3 / 30,    Execution time    0.1 s
 Computed χ(iτ,k=0) for time point            4 / 30,    Execution time    0.1 s
 Computed χ(iτ,k=0) for time point            5 / 30,    Execution time    0.1 s
 Computed χ(iτ,k=0) for time point            6 / 30,    Execution time    0.1 s
 Computed χ(iτ,k=0) for time point            7 / 30,    Execution time    0.1 s
 Computed χ(iτ,k=0) for time point            8 / 30,    Execution time    0.1 s
 Computed χ(iτ,k=0) for time point            9 / 30,    Execution time    0.1 s
 Computed χ(iτ,k=0) for time point           10 / 30,    Execution time    0.1 s
 Computed χ(iτ,k=0) for time point           11 / 30,    Execution time    0.1 s
 Computed χ(iτ,k=0) for time point           12 / 30,    Execution time    0.1 s
 Computed χ(iτ,k=0) for time point           13 / 30,    Execution time    0.1 s
 Computed χ(iτ,k=0) for time point           14 / 30,    Execution time    0.1 s
 Computed χ(iτ,k=0) for time point           15 / 30,    Execution time    0.1 s
 Computed χ(iτ,k=0) for time point           16 / 30,    Execution time    0.1 s
 Computed χ(iτ,k=0) for time point           17 / 30,    Execution time    0.1 s
 Computed χ(iτ,k=0) for time point           18 / 30,    Execution time    0.1 s
 Computed χ(iτ,k=0) for time point           19 / 30,    Execution time    0.1 s
 Computed χ(iτ,k=0) for time point           20 / 30,    Execution time    0.1 s
 Computed χ(iτ,k=0) for time point           21 / 30,    Execution time    0.1 s
 Computed χ(iτ,k=0) for time point           22 / 30,    Execution time    0.1 s
 Computed χ(iτ,k=0) for time point           23 / 30,    Execution time    0.1 s
 Computed χ(iτ,k=0) for time point           24 / 30,    Execution time    0.1 s
 Computed χ(iτ,k=0) for time point           25 / 30,    Execution time    0.1 s
 Computed χ(iτ,k=0) for time point           26 / 30,    Execution time    0.1 s
 Computed χ(iτ,k=0) for time point           27 / 30,    Execution time    0.1 s
 Computed χ(iτ,k=0) for time point           28 / 30,    Execution time    0.1 s
 Computed χ(iτ,k=0) for time point           29 / 30,    Execution time    0.1 s
 Computed χ(iτ,k=0) for time point           30 / 30,    Execution time    0.1 s
 
 Computed W(iτ,k) for k-point batch           1 /  1,    Execution time    1.3 s
 
 Computed Σ^x(k=0),                                      Execution time    0.2 s
 
 Computed Σ^c(iτ,k=0) for time point          1 / 30,    Execution time    0.3 s
 Computed Σ^c(iτ,k=0) for time point          2 / 30,    Execution time    0.2 s
 Computed Σ^c(iτ,k=0) for time point          3 / 30,    Execution time    0.2 s
 Computed Σ^c(iτ,k=0) for time point          4 / 30,    Execution time    0.3 s
 Computed Σ^c(iτ,k=0) for time point          5 / 30,    Execution time    0.2 s
 Computed Σ^c(iτ,k=0) for time point          6 / 30,    Execution time    0.2 s
 Computed Σ^c(iτ,k=0) for time point          7 / 30,    Execution time    0.2 s
 Computed Σ^c(iτ,k=0) for time point          8 / 30,    Execution time    0.2 s
 Computed Σ^c(iτ,k=0) for time point          9 / 30,    Execution time    0.2 s
 Computed Σ^c(iτ,k=0) for time point         10 / 30,    Execution time    0.3 s
 Computed Σ^c(iτ,k=0) for time point         11 / 30,    Execution time    0.2 s
 Computed Σ^c(iτ,k=0) for time point         12 / 30,    Execution time    0.2 s
 Computed Σ^c(iτ,k=0) for time point         13 / 30,    Execution time    0.2 s
 Computed Σ^c(iτ,k=0) for time point         14 / 30,    Execution time    0.2 s
 Computed Σ^c(iτ,k=0) for time point         15 / 30,    Execution time    0.2 s
 Computed Σ^c(iτ,k=0) for time point         16 / 30,    Execution time    0.2 s
 Computed Σ^c(iτ,k=0) for time point         17 / 30,    Execution time    0.2 s
 Computed Σ^c(iτ,k=0) for time point         18 / 30,    Execution time    0.2 s
 Computed Σ^c(iτ,k=0) for time point         19 / 30,    Execution time    0.2 s
 Computed Σ^c(iτ,k=0) for time point         20 / 30,    Execution time    0.2 s
 Computed Σ^c(iτ,k=0) for time point         21 / 30,    Execution time    0.2 s
 Computed Σ^c(iτ,k=0) for time point         22 / 30,    Execution time    0.2 s
 Computed Σ^c(iτ,k=0) for time point         23 / 30,    Execution time    0.2 s
 Computed Σ^c(iτ,k=0) for time point         24 / 30,    Execution time    0.2 s
 Computed Σ^c(iτ,k=0) for time point         25 / 30,    Execution time    0.2 s
 Computed Σ^c(iτ,k=0) for time point         26 / 30,    Execution time    0.2 s
 Computed Σ^c(iτ,k=0) for time point         27 / 30,    Execution time    0.2 s
 Computed Σ^c(iτ,k=0) for time point         28 / 30,    Execution time    0.2 s
 Computed Σ^c(iτ,k=0) for time point         29 / 30,    Execution time    0.2 s
 Computed Σ^c(iτ,k=0) for time point         30 / 30,    Execution time    0.2 s
 
 Sparsity of Σ^c(iτ,k=0): Percentage of skipped atom pairs:                0.0 %

 
 SCF valence band maximum (eV):                                           -6.596
 SCF conduction band minimum (eV):                                        -1.496
 SCF indirect band gap (eV):                                               5.100
 SCF direct band gap (eV):                                                 5.100
 
 G0W0 valence band maximum (eV):                                          -7.530
 G0W0 conduction band minimum (eV):                                        0.607
 G0W0 indirect band gap (eV):                                              8.137
 G0W0 direct band gap (eV):                                                8.137
 
 Hartree-Fock with SCF orbitals valence band maximum (eV):                -7.731
 Hartree-Fock with SCF orbitals conduction band minimum (eV)               1.543
 Hartree-Fock with SCF orbitals indirect band gap (eV):                    9.275
 Hartree-Fock with SCF orbitals direct band gap (eV):                      9.275

 ENERGY| Total FORCE_EVAL ( QS ) energy [hartree]           -470.212661479417363

 -------------------------------------------------------------------------------
 -                                                                             -
 -                                DBCSR STATISTICS                             -
 -                                                                             -
 -------------------------------------------------------------------------------
 COUNTER                                    TOTAL       BLAS       SMM       ACC
 flops     9 x     9 x    25              5042250     100.0%      0.0%      0.0%     
 flops     9 x    30 x    25             28012500     100.0%      0.0%      0.0%     
 flops    30 x     9 x    25             28012500     100.0%      0.0%      0.0%     
 flops     9 x     9 x    32             64540800     100.0%      0.0%      0.0%     
 flops    30 x    30 x    25            205425000     100.0%      0.0%      0.0%     
 flops     9 x    30 x    32            358560000     100.0%      0.0%      0.0%     
 flops    30 x     9 x    32            358560000     100.0%      0.0%      0.0%     
 flops    30 x    30 x    32           2629440000     100.0%      0.0%      0.0%     
 flops inhomo. stacks                           0       0.0%      0.0%      0.0%
 flops total                         3.677593E+09     100.0%      0.0%      0.0%
 flops max/rank                    103.086000E+06     100.0%      0.0%      0.0%
 matmuls inhomo. stacks                         0       0.0%      0.0%      0.0%
 matmuls total                             109560     100.0%      0.0%      0.0%
 number of processed stacks                107734     100.0%      0.0%      0.0%
 average stack size                                     1.0       0.0       0.0
 marketing flops                   691.534848E+06
 -------------------------------------------------------------------------------
 # multiplications                             83
 max memory usage/rank              19.143066E+09
 # max total images/rank                        3
 # max 3D layers                                1
 # MPI messages exchanged                  701184
 MPI messages size (bytes):
  total size                         2.370978E+09
  min size                           0.000000E+00
  max size                          23.040000E+03
  average size                       3.381392E+03
 MPI breakdown and total messages size (bytes):
             size <=      128              458326                        0
       128 < size <=     8192              137863                695486880
      8192 < size <=    32768              104995               1675491120
     32768 < size <=   131072                   0                        0
    131072 < size <=  4194304                   0                        0
   4194304 < size <= 16777216                   0                        0
  16777216 < size                               0                        0
 -------------------------------------------------------------------------------

 *** WARNING in dbcsr_mm.F:301 :: Using a non-square number of MPI ranks ***
 *** might lead to poor performance. Used ranks: 192 Suggested: 196 400  ***

 -------------------------------------------------------------------------------
 -                                                                             -
 -                      DBCSR MESSAGE PASSING PERFORMANCE                      -
 -                                                                             -
 -------------------------------------------------------------------------------
 ROUTINE             CALLS      AVE VOLUME [Bytes]
 MP_Bcast                9                     12.
 MP_Allreduce          534                      9.
 MP_Alltoall          5746                  94500.
 MP_ISend             7802                   2791.
 MP_IRecv             7968                   2412.
 -------------------------------------------------------------------------------

 -------------------------------------------------------------------------------
 -                                                                             -
 -                                DBM STATISTICS                               -
 -                                                                             -
 -------------------------------------------------------------------------------
    M  x    N  x    K                                          COUNT     PERCENT
    ?  x    ?  x    ?                                          39045      37.84%
  ???  x   ??  x   ??                                          12100      11.73%
   ??  x   ??  x  ???                                           7275       7.05%
  ???  x    ?  x   ??                                           7260       7.04%
    ?  x   ??  x  ???                                           6795       6.58%
  ???  x   ??  x    ?                                           6050       5.86%
    ?  x  ???  x   ??                                           5580       5.41%
   ??  x    ?  x  ???                                           3825       3.71%
   ??  x  ???  x   ??                                           3720       3.60%
  ???  x    ?  x    ?                                           3630       3.52%
    ?  x    ?  x  ???                                           3267       3.17%
    ?  x  ???  x    ?                                           2790       2.70%
   ??  x  ???  x    ?                                           1860       1.80%
 -------------------------------------------------------------------------------

 -------------------------------------------------------------------------------
 -                                                                             -
 -                                GRID STATISTICS                              -
 -                                                                             -
 -------------------------------------------------------------------------------
 LP    KERNEL             BACKEND                              COUNT     PERCENT
 3     collocate ortho    CPU                                  10668      16.27%
 3     integrate ortho    CPU                                  10668      16.27%
 6     collocate ortho    CPU                                   6132       9.35%
 6     integrate ortho    CPU                                   6132       9.35%
 4     collocate ortho    CPU                                   4872       7.43%
 4     integrate ortho    CPU                                   4872       7.43%
 0     collocate ortho    CPU                                   4620       7.05%
 0     integrate ortho    CPU                                   4620       7.05%
 1     collocate ortho    CPU                                   4116       6.28%
 1     integrate ortho    CPU                                   4116       6.28%
 2     collocate general  CPU                                   1260       1.92%
 2     integrate general  CPU                                   1260       1.92%
 2     collocate ortho    CPU                                   1092       1.67%
 2     integrate ortho    CPU                                   1092       1.67%
 0     collocate general  CPU                                     15       0.02%
 0     integrate general  CPU                                     15       0.02%
 -------------------------------------------------------------------------------

 -------------------------------------------------------------------------------
 -                                                                             -
 -                          OFFLOAD MEMPOOL STATISTICS                         -
 -                                                                             -
 -------------------------------------------------------------------------------
 Memory consumption                Number of allocations  Used [MiB]  Size [MiB]
 Host                                                112          14          27
 -------------------------------------------------------------------------------

 MEMORY| Estimated peak process memory [MiB]                                1562

 -------------------------------------------------------------------------------
 ----                             MULTIGRID INFO                            ----
 -------------------------------------------------------------------------------
 count for grid        1:       21719017          cutoff [a.u.]          250.00
 count for grid        2:        4721101          cutoff [a.u.]           83.33
 count for grid        3:        3099280          cutoff [a.u.]           27.78
 count for grid        4:        1058010          cutoff [a.u.]            9.26
 total gridlevel count  :       30597408

 -------------------------------------------------------------------------------
 -                                                                             -
 -                         MESSAGE PASSING PERFORMANCE                         -
 -                                                                             -
 -------------------------------------------------------------------------------

 ROUTINE             CALLS      AVE VOLUME [Bytes]
 MP_Group             3005
 MP_Bcast             8032                 138037.
 MP_Allreduce        25208                  11067.
 MP_Sync              3956
 MP_Alltoall          4527                6691968.
 MP_SendRecv         32088                  69520.
 MP_ISendRecv        64558                  41736.
 MP_Wait             97171
 MP_comm_split        1620
 MP_ISend            35919                 304204.
 MP_IRecv            37955                 288257.
 -------------------------------------------------------------------------------


 -------------------------------------------------------------------------------
 -                                                                             -
 -                           R E F E R E N C E S                               -
 -                                                                             -
 -------------------------------------------------------------------------------
 
 CP2K version 2025.2 (Development Version), the CP2K developers group (2025).
 CP2K is freely available from https://www.cp2k.org/ .
 
 M. Graml, K. Zollner, D. Hernangómez-Pérez, P. E. Faria Junior, J. Wilhelm.
 J. Chem. Theory Comput. 20, 2202-2208 (2024).
 Low-scaling GW algorithm applied to twisted transition-metal dichalcogenide 
 heterobilayers.
 https://doi.org/10.1021/acs.jctc.3c01230

 T. D. Kuehne, M. Iannuzzi, M. Del Ben, V. V. Rybkin, P. Seewald, F. Stein, T. 
 Laino, R. Z. Khaliullin, O. Schuett, F. Schiffmann, D. Golze, J. Wilhelm, S. 
 Chulkov, M. H. Bani-Hashemian, V. Weber, U. Borstnik, M. Taillefumier, A. S. 
 Jakobovits, A. Lazzaro, H. Pabst, T. Mueller, R. Schade, M. Guidon, S. 
 Andermatt, N. Holmberg, G. K. Schenter, A. Hehn, A. Bussy, F. Belleflamme, G. 
 Tabacchi, A. Gloess, M. Lass, I. Bethune, C. J. Mundy, C. Plessl, M. Watkins, 
 J. VandeVondele, M. Krack, J. Hutter.
 J. Chem. Phys. 152, 194103 (2020).
 CP2K: An electronic structure and molecular dynamics software package - 
 Quickstep: Efficient and accurate electronic structure calculations.
 https://doi.org/10.1063/5.0007045

 O. Schuett, P. Messmer, J. Hutter, J. VandeVondele.
 Electronic Structure Calculations on Graphics Processing Units, 173-190 (2016).
 GPU-Accelerated Sparse Matrix-Matrix Multiplication for Linear Scaling Density 
 Functional Theory.
 https://doi.org/10.1002/9781118670712.ch8

 A. Heinecke, G. Henry, M. Hutchinson, H. Pabst.
 Proceedings of Intl. Supercomputing Conference, 981-991 (2016).
 LIBXSMM: Accelerating Small Matrix Multiplications by Runtime Code Generation.
 https://doi.org/10.1109/SC.2016.83

 J. Hutter, M. Iannuzzi, F. Schiffmann, J. VandeVondele.
 WIREs Comput Mol Sci. 4, 15-25 (2014).
 CP2K: atomistic simulations of condensed matter systems.
 https://doi.org/10.1002/wcms.1159

 U. Borstnik, J. VandeVondele, V. Weber, J. Hutter.
 Parallel Comput. 40, 47-58 (2014).
 Sparse matrix multiplication: The distributed block-compressed sparse row 
 library.
 https://doi.org/10.1016/j.parco.2014.03.012

 A. Marek, V. Blum, R. Johanni, V. Havu, B. Lang, T. Auckenthaler, A. Heinecke, 
 H. Bungartz, H. Lederer.
 J. Phys. Condens. Matter 26, 213201 (2014).
 The ELPA library: scalable parallel eigenvalue solutions for electronic 
 structure theory and computational science.
 https://doi.org/10.1088/0953-8984/26/21/213201

 M. Guidon, J. Hutter, J. VandeVondele.
 J. Chem. Theory Comput. 5, 3010-3021 (2009).
 Robust Periodic Hartree-Fock Exchange for Large-Scale Simulations Using 
 Gaussian Basis Sets.
 https://doi.org/10.1021/ct900494g

 M. Guidon, F. Schiffmann, J. Hutter, J. VandeVondele.
 J. Chem. Phys. 128, 214104 (2008).
 Ab initio molecular dynamics using hybrid density functionals.
 https://doi.org/10.1063/1.2931945

 L. Genovese, T. Deutsch, S. Goedecker.
 J. Chem. Phys. 127, 054704 (2007).
 Efficient and accurate three-dimensional Poisson solver for surface problems.
 https://doi.org/10.1063/1.2754685

 J. VandeVondele, J. Hutter.
 J. Chem. Phys. 127, 114105 (2007).
 Gaussian basis sets for accurate calculations on molecular systems in gas and 
 condensed phases.
 https://doi.org/10.1063/1.2770708

 L. Genovese, T. Deutsch, A. Neelov, S. Goedecker, G. Beylkin.
 J. Chem. Phys. 125, 074105 (2006).
 Efficient solution of Poisson's equation with free boundary conditions.
 https://doi.org/10.1063/1.2335442

 M. Frigo, S. G. Johnson.
 Proc. IEEE 93, 216-231 (2005).
 The design and implementation of FFTW3.
 https://doi.org/10.1109/JPROC.2004.840301

 M. Krack, M. Parrinello.
 Phys. Chem. Chem. Phys. 2, 2105-2112 (2000).
 All-electron ab-initio molecular dynamics.
 https://doi.org/10.1039/b001167n

 G. Lippert, J. Hutter, M. Parrinello.
 Theor. Chem. Acc. 103, 124-140 (1999).
 The Gaussian and augmented-plane-wave density functional method for ab initio 
 molecular dynamics simulations.
 https://doi.org/10.1007/s002140050523

 J. P. Perdew, K. Burke, M. Ernzerhof.
 Phys. Rev. Lett. 77, 3865-3868 (1996).
 Generalized gradient approximation made simple.
 https://doi.org/10.1103/PhysRevLett.77.3865


 -------------------------------------------------------------------------------
 -                                                                             -
 -                                T I M I N G                                  -
 -                                                                             -
 -------------------------------------------------------------------------------
 SUBROUTINE                       CALLS  ASD         SELF TIME        TOTAL TIME
                                MAXIMUM       AVERAGE  MAXIMUM  AVERAGE  MAXIMUM
 CP2K                                 1  1.0    0.018    0.031  161.580  161.593
 qs_energies                          1  2.0    0.000    0.000  161.291  161.304
 scf_env_do_scf                       1  3.0    0.000    0.000  145.234  145.246
 scf_env_do_scf_inner_loop           83  4.0    0.002    0.004  145.234  145.246
 qs_ks_build_kohn_sham_matrix        84  7.0    0.012    0.014  126.072  126.098
 qs_ks_update_qs_env                 83  5.0    0.001    0.001  125.103  125.128
 rebuild_ks_matrix                   83  6.0    0.000    0.000  125.096  125.121
 pw_poisson_solve                    84  8.0    0.152    0.233   73.925   73.958
 mp_alltoall_d11v                  2970 10.6   41.780   42.515   41.780   42.515
 fft_wrap_pw1pw2                   1755 10.0    0.018    0.024   29.330   30.370
 fft_wrap_pw1pw2_250               1251 11.1    0.477    0.583   27.669   28.692
 fft3d_ps                          1755 12.0    3.240    4.585   27.606   28.628
 ps_wavelet_solve                    84  9.0    2.360    3.235   26.083   26.510
 mp_alltoall_z22v                  1755 14.0   23.158   24.416   23.158   24.416
 mp_alltoall_d54                     84 10.0   16.973   19.237   16.973   19.237
 hfx_ks_matrix                       84  8.0    0.001    0.001   15.297   15.316
 integrate_four_center               84  9.0    1.638    2.620   15.293   15.314
 qs_rho_update_rho_low               84  5.0    0.001    0.001   14.998   15.000
 calculate_rho_elec                  84  6.0    0.057    0.084   14.552   14.553
 qs_vxc_create                       84  8.0    0.001    0.002   13.651   13.752
 xc_vxc_pw_create                    83  9.0    0.085    0.121   13.650   13.750
 qs_energies_properties               1  3.0    0.000    0.000   13.293   13.298
 post_scf_bandstructure               1  4.0    0.000    0.000   13.293   13.298
 gw                                   1  5.0    0.000    0.000   13.151   13.152
 x_to_yz                            750 12.9    0.393    0.615   12.326   12.563
 yz_to_x                            669 13.2    0.240    0.276   11.409   12.516
 gw_calc_large_cell_Gamma             1  6.0    0.000    0.000   11.422   11.437
 sum_up_and_integrate                84  8.0    0.001    0.002   11.064   11.360
 integrate_v_rspace                  84  9.0    0.002    0.002   11.038   11.338
 mp_waitany                       27660 11.5    8.734   11.255    8.734   11.255
 xc_pw_derive                       498 11.0    0.002    0.003   10.859   11.040
 potential_pw2rs                     84 10.0    0.006    0.007   10.735   10.760
 transfer_pw2rs                     421 10.6    0.003    0.005    9.861   10.526
 density_rs2pw                       84  7.0    0.003    0.003    9.350   10.248
 integrate_four_center_main          84 10.0    0.042    0.122    8.175    8.632
 integrate_four_center_bin         7662 11.0    8.134    8.567    8.134    8.567
 mp_alltoall_d45                     85 10.0    8.034    8.550    8.034    8.550
 transfer_pw2rs_250                 169 11.0    0.745    0.924    5.742    8.333
 xc_pw_divergence                    83 10.0    0.001    0.002    7.111    7.259
 xc_rho_set_and_dset_create          83 10.0    0.090    0.113    6.260    6.569
 transfer_rs2pw                     421  8.4    0.007    0.011    5.301    6.182
 dbt_total                          699  9.0    0.002    0.003    6.130    6.131
 get_Sigma_c                          1  7.0    0.001    0.001    5.971    5.972
 dbt_contract                       243  9.9    0.006    0.009    5.663    5.668
 dbt_tas_multiply                   486 12.4    0.000    0.001    5.624    5.625
 dbt_tas_total                      486 13.4    0.025    0.031    5.617    5.617
 grid_collocate_task_list            84  7.0    5.006    5.503    5.006    5.503
 mp_sync                           3956 12.1    3.545    5.474    3.545    5.474
 transfer_pw2rs_90                   84 12.0    0.138    0.197    3.212    5.422
 mp_waitall_1                     79335 12.0    2.326    5.218    2.326    5.218
 prepare_gapw_den                    84  8.0    0.001    0.001    5.076    5.137
 gspace_mixing                       82  5.0    0.055    0.083    4.021    4.022
 transfer_rs2pw_250                 169 10.0    0.854    0.984    2.946    3.800
 integrate_vhg0_rspace               84  8.0    0.083    0.117    3.312    3.747
 put_rho0_on_grid                    84  9.0    0.061    0.095    3.647    3.708
 contract_to_Sigma                   61  8.0    0.001    0.001    3.553    3.553
 get_mat_chi_Gamma_tau                1  7.0    0.000    0.001    3.256    3.271
 mp_isend_dm3                      3372 11.5    0.919    3.001    0.919    3.001
 calc_screening_functions             1 10.0    2.531    2.610    2.852    2.935
 qs_scf_new_mos                      83  5.0    0.001    0.001    2.733    2.749
 mp_sum_d                          6981  6.9    2.212    2.715    2.212    2.715
 eigensolver_symm                    83  6.0    0.006    0.007    2.339    2.385
 cp_fm_diag_elpa                     89  7.1    0.000    0.000    2.210    2.219
 broyden_mixing                      82  6.0    2.058    2.114    2.137    2.180
 cp_fm_diag_elpa_base                89  8.1    2.132    2.174    2.178    2.178
 compute_3c_integrals               152  8.6    0.002    0.002    2.129    2.130
 build_3c_integrals                 157  9.6    1.143    1.933    1.407    2.102
 mp_sum_dm                         3862  7.7    1.665    1.988    1.665    1.988
 cp2k_distribution_to_z_slices       84  9.0    0.161    0.198    1.695    1.950
 init_scf_run                         1  3.0    0.000    0.000    1.929    1.929
 create_and_init_bs_env_for_gw        1  6.0    0.000    0.000    1.729    1.751
 scf_env_initial_rho_setup            1  4.0    0.000    0.000    1.695    1.725
 compute_3c_and_contract_W           31  8.0    0.000    0.000    1.694    1.694
 dbt_tas_create_split              1618 15.2    0.003    0.003    1.623    1.641
 dbt_tas_create_split_rows_or_c    1618 16.2    0.003    0.004    1.621    1.638
 transfer_rs2pw_90                   84  9.0    0.169    0.261    1.508    1.623
 dbt_tas_dbm                        486 14.4    0.000    0.001    1.505    1.510
 get_W_MIC                            1  7.0    0.000    0.000    1.503    1.506
 compute_W_MIC                        1  8.0    0.000    0.000    1.503    1.506
 pw_poisson_rebuild                  84  9.0    0.000    0.000    1.418    1.451
 ps_wavelet_create                    1 10.0    0.000    0.000    1.418    1.451
 RS_z_slice_distribution              1 11.0    0.103    0.114    1.418    1.451
 dbm_multiply                       486 16.4    1.131    1.294    1.131    1.294
 fft_wrap_pw1pw2_90                 168 10.5    0.018    0.026    1.119    1.292
 calculate_rho_atom                 336  9.0    0.267    1.266    0.267    1.266
 mp_sum_dv                        10722  8.7    1.174    1.233    1.174    1.233
 compute_fm_W_MIC_freq_j             30  9.0    0.000    0.000    1.211    1.211
 dbt_tas_distribution_new          1774 14.6    0.473    0.482    1.187    1.194
 dbt_tas_estimate_result_nze        243 12.9    0.029    0.038    1.097    1.097
 calculate_vxc_atom                  84  8.0    0.027    0.167    1.083    1.089
 parallel_gemm_fm_cosma             350  8.2    0.990    1.048    0.990    1.048
 G_times_3c                          60  8.0    0.000    0.000    1.018    1.018
 reshape_mm_small                   486 14.4    0.023    0.024    0.965    0.990
 mp_irecv_dm3                      3372 11.5    0.077    0.981    0.077    0.981
 compute_V_xc                         1  7.0    0.000    0.000    0.979    0.979
 xc_functional_eval                 581 10.9    0.001    0.001    0.573    0.950
 pbe_lda_eval                       581 11.9    0.573    0.949    0.573    0.949
 transfer_pw2rs_30                   84 12.0    0.181    0.256    0.710    0.931
 mp_bcast_i                        2211 13.1    0.918    0.921    0.918    0.921
 gaVxcgb_GC                         249  9.0    0.022    0.858    0.022    0.858
 transfer_rs2pw_30                   84  9.0    0.341    0.375    0.709    0.845
 cp_cfm_heevd                        32 10.8    0.000    0.000    0.840    0.842
 cp_cfm_heevd_base                   32 11.8    0.840    0.842    0.840    0.842
 cp_cfm_power                        30 10.0    0.000    0.000    0.820    0.821
 qs_energies_init_hamiltonians        1  3.0    0.000    0.000    0.796    0.796
 build_core_hamiltonian_matrix        1  4.0    0.000    0.000    0.782    0.782
 overlap_condnum                      1  5.0    0.000    0.000    0.779    0.781
 parallel_gemm_cfm                  283 10.4    0.000    0.000    0.749    0.771
 parallel_gemm_cfm_cosma            283 11.4    0.749    0.770    0.749    0.770
 rs_grid_zero                       422 11.2    0.592    0.757    0.592    0.757
 fm_to_local_tensor                 152  8.0    0.001    0.002    0.741    0.746
 reshape_mm_compatible              486 14.4    0.005    0.006    0.730    0.737
 change_split                       729 14.9    0.002    0.002    0.707    0.713
 convert_to_new_pgrid              1458 14.4    0.287    0.348    0.571    0.659
 dbt_tas_mm_2                       182 15.2    0.000    0.000    0.644    0.649
 pw_copy                           1255 10.6    0.525    0.617    0.525    0.617
 powell_optimize                 569249 11.0    0.573    0.602    0.573    0.602
 pw_derive                          750 11.3    0.530    0.600    0.530    0.600
 calc_pair_dist_radii                 1 10.0    0.301    0.341    0.553    0.598
 mp_sendrecv_dv                   32088 10.0    0.441    0.597    0.441    0.597
 grid_integrate_task_list            84 10.0    0.073    0.559    0.073    0.559
 dbm_redistribute                   912 14.1    0.442    0.548    0.442    0.548
 setup_time_and_frequency_minim       1  7.0    0.000    0.000    0.523    0.545
 rs_gather_matrices                  84 10.0    0.001    0.008    0.227    0.540
 mp_bcast_dm                       2521  9.0    0.527    0.535    0.527    0.535
 mp_sum_l                          3125 13.7    0.441    0.521    0.441    0.521
 pw_gather_p                        837 11.8    0.432    0.513    0.432    0.513
 pw_integral_ab_c1d_c1d_gs           84  9.0    0.110    0.124    0.259    0.506
 copy_dbcsr_to_fm                   277  8.3    0.003    0.003    0.480    0.501
 dbcsr_complete_redistribute        595  9.4    0.013    0.015    0.465    0.486
 dbt_tas_mm_3N                       62 15.5    0.000    0.000    0.423    0.475
 compute_QP_energies                  1  7.0    0.000    0.000    0.465    0.466
 update_ks_atom                      84  8.0    0.024    0.050    0.436    0.464
 mp_alltoall_z11v                   336 13.5    0.401    0.456    0.401    0.456
 calculate_rho_atom_coeff            84  6.0    0.034    0.060    0.446    0.446
 arnoldi_conjugate_gradient           5  6.0    0.007    0.008    0.434    0.434
 pw_scatter_p                       918 12.1    0.381    0.431    0.381    0.431
 abc_contract_xsmm                34496 10.6    0.124    0.428    0.124    0.428
 mp_waitall_2                      2978 15.9    0.289    0.425    0.289    0.425
 mp_comm_split_direct              1620 17.2    0.412    0.414    0.412    0.414
 to_ikp_and_mo                       62  8.0    0.000    0.000    0.396    0.396
 G_occ_vir                          121  8.0    0.001    0.001    0.381    0.395
 fft_wrap_pw1pw2_30                 168 10.5    0.002    0.003    0.339    0.390
 fm_Gamma_ao_to_cfm_ikp_mo           62  9.0    0.000    0.000    0.387    0.390
 pw_poisson_set                      85  9.0    0.001    0.002    0.349    0.381
 dbt_tas_replicate                  486 14.4    0.028    0.042    0.298    0.369
 dbt_create_matrix                  152  9.0    0.001    0.001    0.349    0.352
 compute_cfm_W_ikp_freq_j            30 10.0    0.000    0.000    0.350    0.352
 mp_irecv_dv                      38397 12.4    0.068    0.342    0.068    0.342
 dbt_tas_communicate_buffer        1124 16.5    0.008    0.015    0.265    0.338
 dbt_distribution_new_expert        316 10.5    0.002    0.002    0.332    0.332
 mp_alltoall_i                     1917 14.5    0.305    0.325    0.305    0.325
 pw_copy_to_array                   837 11.8    0.250    0.319    0.250    0.319
 mp_isend_dv                      40698 12.4    0.160    0.313    0.160    0.313
 write_matrix                        91  8.0    0.000    0.000    0.261    0.310
 mp_alltoall_i22                    878 10.4    0.273    0.302    0.273    0.302
 integrate_four_center_getP          84 10.0    0.012    0.016    0.264    0.288
 cp_fm_power                          3  8.7    0.000    0.001    0.278    0.282
 dbt_tas_reshape                    638 14.5    0.004    0.006    0.252    0.280
 dbcsr_sym_matrix_vector_mult      3465  7.0    0.016    0.017    0.253    0.275
 Vh_1c_gg_integrals                  84  8.0    0.007    0.146    0.224    0.274
 mp_cart_create                    3288 14.7    0.233    0.271    0.235    0.272
 yz_to_xz                           168 14.0    0.008    0.017    0.231    0.270
 calculate_dm_sparse                 83  6.0    0.000    0.000    0.253    0.269
 cp_dbcsr_plus_fm_fm_t               83  7.0    0.001    0.001    0.252    0.268
 dbt_copy                           456 10.1    0.003    0.004    0.184    0.267
 fm_write                           121  9.0    0.003    0.067    0.179    0.260
 dbt_reshape                        274 10.9    0.052    0.060    0.155    0.236
 pw_copy_from_array                 918 12.1    0.145    0.235    0.145    0.235
 mp_max_i                          1032  6.7    0.158    0.232    0.158    0.232
 get_Sigma_x                          1  7.0    0.000    0.000    0.227    0.227
 compute_Sigma_x                      1  8.0    0.000    0.000    0.227    0.227
 transfer_pw2rs_10                   84 12.0    0.049    0.057    0.194    0.217
 cp_fm_write_unformatted            126  9.9    0.184    0.200    0.184    0.212
 mp_comm_dup                       1379 17.6    0.196    0.209    0.196    0.210
 xz_to_yz                           168 11.0    0.005    0.006    0.183    0.207
 offload_free_buffer                 92  8.5    0.047    0.207    0.047    0.207
 pw_axpy                            835  9.3    0.183    0.206    0.183    0.206
 cp_fm_symm                          83  7.0    0.174    0.204    0.174    0.204
 integrate_four_center_dist_KS       84 10.0    0.013    0.017    0.202    0.202
 dbt_tas_merge                      182 14.2    0.018    0.038    0.155    0.199
 fft_wrap_pw1pw2_10                 168 10.5    0.001    0.001    0.185    0.198
 dbt_tas_replicate_communicate_     304 15.5    0.001    0.002    0.128    0.192
 get_l_sq_wghts_cos_tf_t_to_w         1  8.0    0.178    0.188    0.178    0.188
 multiply_fm_W_MIC_time_with_Mi       2  9.0    0.000    0.000    0.183    0.183
 check_sparsity_3c                    1  7.0    0.000    0.000    0.183    0.183
 get_l_sq_wghts_sin_tf_t_to_w         1  8.0    0.174    0.181    0.174    0.181
 get_l_sq_wghts_cos_tf_w_to_t         1  8.0    0.169    0.177    0.171    0.179
 calculate_rho0_atom                336  9.0    0.171    0.179    0.171    0.179
 pw_zero                            500 10.3    0.134    0.176    0.134    0.176
 dbcsr_rep_row_to_rep_col_vec      3465  8.0    0.005    0.007    0.087    0.173
 dbcsr_desymmetrize_deep            283  9.3    0.003    0.004    0.151    0.166
 integrate_four_center_load          84 10.0    0.000    0.000    0.094    0.164
 hfx_load_balance                     1 11.0    0.000    0.000    0.094    0.164
 copy_fm_to_dbcsr                   318  8.5    0.001    0.001    0.143    0.162
 dbcsr_multiply_generic              83  8.0    0.003    0.003    0.150    0.160
 qs_init_subsys                       1  2.0    0.001    0.001    0.159    0.159
 dbt_tas_reshape_alltoall           638 15.5    0.000    0.000    0.152    0.158
 dbt_tas_merge_communicate_buff     182 15.2    0.001    0.001    0.120    0.157
 dbt_communicate_buffer             274 11.9    0.001    0.002    0.076    0.152
 hfx_load_balance_range               1 12.0    0.000    0.000    0.082    0.151
 qs_env_setup                         1  3.0    0.000    0.000    0.150    0.150
 qs_env_rebuild_pw_env                2  3.5    0.000    0.000    0.149    0.150
 pw_env_rebuild                       1  5.0    0.000    0.000    0.149    0.150
 mp_rank_compare                   1755 13.0    0.143    0.149    0.143    0.149
 dbt_tas_mm_3T                      122 15.5    0.000    0.000    0.111    0.146
 mp_cart_sub                        572 10.3    0.142    0.145    0.142    0.145
 transfer_rs2pw_10                   84  9.0    0.058    0.068    0.131    0.140
 dbt_tas_mm_1N                      120 15.5    0.000    0.000    0.106    0.127
 pw_grid_setup                        4  6.0    0.000    0.000    0.124    0.125
 pw_grid_setup_internal               4  7.0    0.001    0.001    0.124    0.125
 dbt_tas_replicate_alltoall         304 15.5    0.000    0.000    0.101    0.121
 cp_cfm_geeig                         2  7.0    0.000    0.000    0.115    0.116
 mp_alltoall_i11v                  2068 10.4    0.049    0.111    0.049    0.111
 dbcsr_col_vec_to_rep_row          3465  8.0    0.007    0.009    0.075    0.109
 dbm_reserve_blocks                2921 15.9    0.062    0.097    0.062    0.097
 dbt_tas_reserve_blocks_index      2435 15.0    0.001    0.002    0.060    0.090
 cp_cfm_cholesky_invert              31 11.0    0.087    0.089    0.087    0.089
 dbcsr_add_d                       6164  7.6    0.002    0.002    0.019    0.083
 compute_MinvVsqrt_Vsqrt              1  9.0    0.000    0.000    0.069    0.083
 dbcsr_add_anytype                 6164  8.6    0.003    0.012    0.017    0.082
 create_qs_kind_set                   1  2.0    0.000    0.000    0.079    0.079
 read_qs_kind                         4  3.0    0.020    0.044    0.079    0.079
 dos_pdos_ldos                        1  5.0    0.000    0.000    0.075    0.079
 cp_cfm_cholesky_decompose           35 10.7    0.070    0.072    0.070    0.072
 dbt_tas_copy                       486 13.8    0.017    0.030    0.053    0.067
 create_and_init_bs_env               1  5.0    0.000    0.000    0.067    0.067
 cp_fm_uplo_to_full                  92  9.1    0.036    0.066    0.036    0.066
 dbcsr_dot                          167  8.0    0.001    0.002    0.035    0.065
 dbcsr_finalize                    9035 11.2    0.006    0.018    0.024    0.065
 cube_transpose_2                   168 11.0    0.002    0.002    0.035    0.064
 rs_scatter_matrices                 84  7.0    0.001    0.008    0.011    0.062
 calculate_first_density_matrix       1  5.0    0.000    0.000    0.031    0.060
 calculate_atomic_block_dm            1  6.0    0.001    0.001    0.031    0.060
 parser_read_line                 20142  4.0    0.002    0.002    0.059    0.060
 dbt_create_new                     158 10.0    0.001    0.001    0.057    0.059
 dbt_tas_reshape_buffer_obtain      638 15.5    0.039    0.042    0.050    0.059
 parser_read_line_low                32  5.0    0.001    0.011    0.057    0.058
 broadcast_input_information         32  6.0    0.003    0.003    0.057    0.058
 multiply_cannon                     83  9.0    0.005    0.005    0.047    0.057
 diagonalize_ks_matrix                1  6.0    0.000    0.000    0.055    0.055
 cp_fm_geeig_canon                    1  7.0    0.000    0.000    0.055    0.055
 make_m2s                           166  9.0    0.002    0.002    0.052    0.054
 mp_bcast_b_src                     172  7.6    0.017    0.053    0.017    0.053
 cube_transpose_1                   168 14.0    0.002    0.012    0.026    0.053
 fill_fm_Sigma_c_Gamma_time           1  8.0    0.000    0.000    0.052    0.052
 dbt_tas_reserve_blocks_templat     972 14.4    0.001    0.002    0.038    0.050
 compute_fm_chi_Gamma_freq           30 10.0    0.000    0.000    0.040    0.050
 mp_isendrecv_dv                  64176 12.0    0.024    0.050    0.024    0.050
 dbt_tas_reshape_communicate_bu     638 15.5    0.003    0.003    0.022    0.048
 vxc_of_r_new                       498  9.0    0.000    0.007    0.001    0.048
 global_matrix_to_local_matrix      152  9.0    0.001    0.001    0.041    0.046
 dbt_pgrid_create_expert            320 11.5    0.001    0.001    0.043    0.045
 pw_grid_remap                        4  8.0    0.001    0.001    0.043    0.044
 multiply_cannon_loop                83 10.0    0.003    0.005    0.033    0.043
 mp_sum_im3                           6  9.5    0.042    0.043    0.042    0.043
 dbt_reserve_blocks_index           825 12.3    0.001    0.001    0.020    0.043
 scale_and_distribute               168 10.0    0.031    0.042    0.031    0.042
 mp_sum_i                           648 14.2    0.036    0.042    0.036    0.042
 make_images                        166 10.0    0.003    0.003    0.039    0.041
 cp_fm_redistribute_start            89  8.1    0.000    0.000    0.032    0.040
 scf_post_calculation_gpw             1  3.0    0.000    0.000    0.039    0.039
 write_available_results              1  4.0    0.000    0.000    0.039    0.039
 write_mo_free_results                1  5.0    0.001    0.002    0.039    0.039
 mp_bcast_dv                       3465  9.0    0.026    0.038    0.026    0.038
 dbcsr_copy                       14563  7.6    0.013    0.027    0.023    0.037
 mp_bcast_i_src                     128  7.0    0.035    0.037    0.035    0.037
 alloc_block_3c                     157 10.6    0.003    0.006    0.015    0.037
 get_atomic_block_maps                1 10.0    0.000    0.000    0.034    0.036
 mp_max_iv                            3 10.7    0.034    0.035    0.034    0.035
 make_images_sizes                  166 11.0    0.000    0.000    0.031    0.034
 dbcsr_merge_all                   7418 12.2    0.009    0.029    0.012    0.034
 mp_alltoall_i44                    166 12.0    0.031    0.034    0.031    0.034
 dbt_tas_reshape_buffer_fill        638 15.5    0.023    0.033    0.023    0.033
 mp_comm_free                      6910 13.6    0.027    0.031    0.027    0.031
 pw_grid_sort                         4  8.0    0.021    0.022    0.029    0.031
 multiply_cannon_metrocomm3        1992 11.0    0.002    0.002    0.016    0.030
 dbt_tas_create_new                2345 14.5    0.006    0.029    0.006    0.029
 check_for_restart_files              1  7.0    0.029    0.029    0.029    0.029
 dbcsr_iterator_start             46753  9.0    0.017    0.024    0.021    0.029
 dbt_tas_mp_comm                    243 12.9    0.001    0.001    0.029    0.029
 local_dbt_to_global_mat             91  8.0    0.000    0.000    0.024    0.028
 mp_sum_im                           11  8.0    0.027    0.028    0.027    0.028
 rs_grid_create                      90  8.8    0.000    0.001    0.002    0.028
 dbt_nd_mp_comm                     152 10.0    0.000    0.000    0.026    0.028
 send_sizes_1                       152 10.0    0.000    0.000    0.022    0.028
 write_mo_set_to_restart             83  5.0    0.001    0.008    0.009    0.028
 offload_create_buffer               92  9.8    0.002    0.027    0.002    0.027
 mp_sum_iv                           31  7.5    0.023    0.024    0.023    0.024
 compute_proj_mo_on_kind              1  6.0    0.000    0.000    0.024    0.024
 self_consistency_check              83  5.0    0.000    0.000    0.015    0.023
 cp_sm_mix                           83  6.0    0.000    0.000    0.015    0.023
 mp_max_d                            90  7.0    0.015    0.023    0.015    0.023
 pw_scale                           333  9.5    0.018    0.023    0.018    0.023
 dbcsr_create_new                 17777  8.9    0.013    0.018    0.018    0.022
 pw_grid_distribute                   4  8.0    0.004    0.004    0.021    0.022
 build_3c_integrals_put_dbcsr      3040 10.6    0.009    0.021    0.009    0.021
 hybrid_alltoall_any                449 10.9    0.002    0.002    0.009    0.020
 write_mo_set_low                     5  6.0    0.000    0.000    0.008    0.020
 tree_to_linear_d                   595 12.4    0.002    0.019    0.002    0.019
 hirshfeld_integration                1  6.0    0.000    0.003    0.019    0.019
 dbm_add                            486 14.4    0.012    0.019    0.012    0.019
 mp_bcast_am_src                     32  7.0    0.016    0.016    0.017    0.018
 dbcsr_iterator_stop              46753  9.0    0.012    0.015    0.014    0.018
 local_matrix_to_global_matrix       91  9.0    0.000    0.000    0.014    0.018
 calculate_hirshfeld_normalizat       1  6.0    0.000    0.003    0.017    0.017
 mp_maxloc_dv                      1629  1.0    0.017    0.017    0.017    0.017
 compute_max_radius                   1  6.0    0.015    0.017    0.015    0.017
 dbcsr_sym_matrix_vector_mult_l    3465  8.0    0.003    0.014    0.006    0.017
 -------------------------------------------------------------------------------

 The number of warnings for this run is : 1
 
 -------------------------------------------------------------------------------
  **** **** ******  **  PROGRAM ENDED AT                 2025-10-25 09:23:17.330
 ***** ** ***  *** **   PROGRAM RAN ON                                    cn1505
 **    ****   ******    PROGRAM RAN BY                                  metdyn02
 ***** **    ** ** **   PROGRAM PROCESS ID                               3167541
  **** **  *******  **  PROGRAM STOPPED IN /scratch/hpc-prf-metdyn/metdyn02_Remi
                                           /04_mol/Benchmark_mol_low_scal/aUKBqs
                                           EOTmq69kFe5R_nOg/5k_set_final_qzvp/OC
                                           ASIV01/DZVP/1e-2/3.0
