&GLOBAL
  PROJECT  MoS2
  PRINT_LEVEL MEDIUM
  RUN_TYPE ENERGY
  &TIMINGS
     THRESHOLD 0.0001
  &END
  TRACE
  TRACE_MASTER
  TRACE_ROUTINES compute_chi dbt_create_2c_R dbt_create_3c_R1_R2 dbt_create G_occ_vir contract_M_occ_vir_to_chi local_dbt_to_global_fm
&END GLOBAL
&FORCE_EVAL
  METHOD Quickstep
   &DFT
    BASIS_SET_FILE_NAME /scratch/hpc-prf-metdyn/metdyn02_Remi/BASIS_AUG_MOLOPT/BASIS_ALL_MOLOPT_AUG_for_excited_states
    BASIS_SET_FILE_NAME /scratch/hpc-prf-metdyn/metdyn02_Remi/BASIS_AUG_MOLOPT/BASIS_ALL_MOLOPT_AUG_for_excited_states_RI
    BASIS_SET_FILE_NAME /scratch/hpc-prf-metdyn/metdyn02_Remi/BASIS_AUG_MOLOPT/aug-cc-pVZ
    BASIS_SET_FILE_NAME /scratch/hpc-prf-metdyn/metdyn02_Remi/BASIS_AUG_MOLOPT/aug-cc-pVZ-TOTRI
    SORT_BASIS EXP
    POTENTIAL_FILE_NAME  /pc2/groups/hpc-prf-metdyn/metdyn02_Remi/cp2k/cp2k/data/ALL_POTENTIALS 
    CHARGE 0
    &MGRID
      CUTOFF  500
      REL_CUTOFF  100
    &END MGRID
    &POISSON
      PERIODIC NONE
      POISSON_SOLVER WAVELET
    &END POISSON
    &QS
      METHOD GAPW
      EPS_DEFAULT 1.0E-12
      EPS_PGF_ORB 1.0E-12
    &END QS
    &SCF
      SCF_GUESS ATOMIC
      EPS_SCF 1.0E-6
      MAX_SCF 500
      &PRINT
        &RESTART ON
        &END
      &END
      ADDED_MOS -1
      &MIXING
          METHOD BROYDEN_MIXING
          ALPHA 0.1
          BETA 1.5
          NBROYDEN 8
      &END
      CHOLESKY OFF
    &END SCF
    &XC
      &XC_FUNCTIONAL PBE0
      &END XC_FUNCTIONAL
      &HF
         &MEMORY
          MAX_MEMORY 64000
         &END MEMORY
      &END HF
    &END XC
    &PRINT
    &OVERLAP_CONDITION ON
    DIAGONALIZATION T
    &END OVERLAP_CONDITION
    &END PRINT
  &END DFT
  &PROPERTIES
    &BANDSTRUCTURE
      &GW
        NUM_TIME_FREQ_POINTS         30
        MEMORY_PER_PROC              64
        EPS_FILTER              1.0E-11
        REGULARIZATION_RI        1.0E-2
CUTOFF_RADIUS_RI            5.0
      &END
    &END
  &END PROPERTIES

    &SUBSYS
    &CELL
      ABC                 30 30 30
      ALPHA_BETA_GAMMA    90 90 90
      PERIODIC NONE
    &END CELL

     &KIND F
      BASIS_SET ORB aug-SZV-MOLOPT-ae
      BASIS_SET RI_AUX RI_aug-SZV-MOLOPT-ae_N_RI_068_s_p_d_f_g_h_i_7_6_4_2_1_0_0_error_5.8e-06
      POTENTIAL ALL
     &END KIND

     &KIND O
      BASIS_SET ORB aug-SZV-MOLOPT-ae
      BASIS_SET RI_AUX RI_aug-SZV-MOLOPT-ae_N_RI_059_s_p_d_f_g_h_i_7_6_4_2_0_0_0_error_7.1e-06
      POTENTIAL ALL
     &END KIND

     &KIND C
      BASIS_SET ORB aug-SZV-MOLOPT-ae
      BASIS_SET RI_AUX RI_aug-SZV-MOLOPT-ae_N_RI_048_s_p_d_f_g_h_i_6_3_2_2_1_0_0_error_8.4e-05
      POTENTIAL ALL
     &END KIND

     &KIND H
      BASIS_SET ORB aug-SZV-MOLOPT-ae
      BASIS_SET RI_AUX RI_aug-SZV-MOLOPT-ae_N_RI_010_s_p_d_f_g_h_i_4_2_0_0_0_0_0_error_2.4e-06
      POTENTIAL ALL
     &END KIND

    




    &TOPOLOGY
     &CENTER_COORDINATES T
     &END CENTER_COORDINATES
    &END TOPOLOGY


    &COORD
     F 45.68046416 50.67111144 44.77685232
     O 44.48563200 51.19677193 47.05574522
     C 46.46472135 51.71837244 45.05821819
     H 43.88258784 51.16361605 47.82398649
     O 45.21532219 52.93943580 48.29295803
     C 46.32074918 52.48321461 46.22677477
     C 45.30701486 52.25124120 47.29381905
     F 47.57837231 51.28605221 43.01060757
     F 49.25077914 53.37942032 43.43219443
     C 47.45446292 52.02620763 44.12066471
     C 48.30851862 53.10513875 44.34846088
     C 48.18877225 53.88019515 45.49722460
     C 47.20118061 53.56155822 46.41813264
     H 48.86852553 54.71609150 45.64942632
     H 47.07852686 54.14590685 47.32808388
&END COORD
  &END SUBSYS
&END FORCE_EVAL
