SIRIUS 7.7.0, git hash: https://api.github.com/repos/electronic-structure/SIRIUS/git/ref/tags/v7.7.0
 DBCSR| CPU Multiplication driver                                           BLAS (U)
 DBCSR| Multrec recursion limit                                              512 (U)
 DBCSR| Multiplication stack size                                           1000 (D)
 DBCSR| Maximum elements for images                                    UNLIMITED (U)
 DBCSR| Multiplicative factor virtual images                                   1 (U)
 DBCSR| Use multiplication densification                                       T (D)
 DBCSR| Multiplication size stacks                                             3 (U)
 DBCSR| Use memory pool for CPU allocation                                     F (U)
 DBCSR| Number of 3D layers                                               SINGLE (U)
 DBCSR| Use MPI memory allocation                                              F (U)
 DBCSR| Use RMA algorithm                                                      F (U)
 DBCSR| Use Communication thread                                               T (U)
 DBCSR| Communication thread load                                             75 (D)
 DBCSR| MPI: My process id                                                     0
 DBCSR| MPI: Number of processes                                             192
 DBCSR| OMP: Current number of threads                                         4
 DBCSR| OMP: Max number of threads                                             4
 DBCSR| Split modifier for TAS multiplication algorithm                  1.0E+00 (U)


  **** **** ******  **  PROGRAM STARTED AT               2025-10-25 20:01:27.954
 ***** ** ***  *** **   PROGRAM STARTED ON                                cn1209
 **    ****   ******    PROGRAM STARTED BY                              metdyn02
 ***** **    ** ** **   PROGRAM PROCESS ID                               1855891
  **** **  *******  **  PROGRAM STARTED IN /scratch/hpc-prf-metdyn/metdyn02_Remi
                                           /04_mol/Benchmark_mol_low_scal/aUKBqs
                                           EOTmq69kFe5R_nOg/5k_set_final_qzvp/MO
                                           HGUM/aug-cc-pV5Z-DZVP

 CP2K| version string:                 CP2K version 2025.2 (Development Version)
 CP2K| source code revision number:                                  git:2a4e9c4
 CP2K| cp2kflags: omp libint fftw3 libxc libgrpp elpa parallel scalapack mpi_f08
 CP2K|             cosma xsmm plumed2 spglib sirius libvori libbqb libvdwxc hdf5
 CP2K| is freely available from                            https://www.cp2k.org/
 CP2K| Program compiled at                      Fri Oct 24 04:52:17 PM CEST 2025
 CP2K| Program compiled on                                                login1
 CP2K| Program compiled for                                                local
 CP2K| Data directory path    /opt/software/pc2/EB-SW/software/CP2K/2025.2-foss-
 CP2K| Input file name                                                    GW.inp

 GLOBAL| Force Environment number                                              1
 GLOBAL| Basis set file name            /pc2/groups/hpc-prf-metdyn/metdyn02_Remi
 GLOBAL| Potential file name            /pc2/groups/hpc-prf-metdyn/metdyn02_Remi
 GLOBAL| MM Potential file name                                     MM_POTENTIAL
 GLOBAL| Coordinate file name                                      __STD_INPUT__
 GLOBAL| Method name                                                        CP2K
 GLOBAL| Project name                                                       MoS2
 GLOBAL| Run type                                                         ENERGY
 GLOBAL| FFT library                                                       FFTW3
 GLOBAL| Diagonalization library                                            ELPA
 GLOBAL| Cholesky decomposition library                                ScaLAPACK
 GLOBAL| DGEMM library                                                      BLAS
 GLOBAL| Minimum number of eigenvectors for ELPA usage                        16
 GLOBAL| Orthonormality check for eigenvectors                          DISABLED
 GLOBAL| Matrix multiplication library                                     COSMA
 GLOBAL| All-to-all communication in single precision                          F
 GLOBAL| FFTs using library dependent lengths                                  F
 GLOBAL| Grid backend                                                       AUTO
 GLOBAL| Global print level                                               MEDIUM
 GLOBAL| MPI I/O enabled                                                       T
 GLOBAL| Total number of message passing processes                           192
 GLOBAL| Number of distributed systems (nodes)                                 4
 GLOBAL| Number of threads for this process                                    4
 GLOBAL| This output is from process                                           0
 GLOBAL| OpenMP stack size per thread (OMP_STACKSIZE)                    default
 GLOBAL| CPU model name                          AMD EPYC 9655 96-Core Processor
 GLOBAL| CPUID                                                              1003

 MEMORY| system memory details [Kb]
 MEMORY|                        rank 0           min           max       average
 MEMORY| MemTotal            791039120     791039064     791039120     791039091
 MEMORY| MemFree             751981580     749624876     752346540     751173953
 MEMORY| Buffers                  3168          3164          3168          3166
 MEMORY| Cached                7705304       7675436       8015716       7776439
 MEMORY| Slab                  1774496       1743192       2167104       1948830
 MEMORY| SReclaimable           596248        573408        925428        745893
 MEMORY| MemLikelyFree       760286300     758569188     760632412     759699451


 *** Fundamental physical constants (SI units) ***

 *** Literature: B. J. Mohr and B. N. Taylor,
 ***             CODATA recommended values of the fundamental physical
 ***             constants: 2006, Web Version 5.1
 ***             http://physics.nist.gov/constants

 Speed of light in vacuum [m/s]                             2.99792458000000E+08
 Magnetic constant or permeability of vacuum [N/A**2]       1.25663706143592E-06
 Electric constant or permittivity of vacuum [F/m]          8.85418781762039E-12
 Planck constant (h) [J*s]                                  6.62606896000000E-34
 Planck constant (h-bar) [J*s]                              1.05457162825177E-34
 Elementary charge [C]                                      1.60217648700000E-19
 Electron mass [kg]                                         9.10938215000000E-31
 Electron g factor [ ]                                     -2.00231930436220E+00
 Proton mass [kg]                                           1.67262163700000E-27
 Fine-structure constant                                    7.29735253760000E-03
 Rydberg constant [1/m]                                     1.09737315685270E+07
 Avogadro constant [1/mol]                                  6.02214179000000E+23
 Boltzmann constant [J/K]                                   1.38065040000000E-23
 Atomic mass unit [kg]                                      1.66053878200000E-27
 Bohr radius [m]                                            5.29177208590000E-11

 *** Conversion factors ***

 [u] -> [a.u.]                                              1.82288848426455E+03
 [Angstrom] -> [Bohr] = [a.u.]                              1.88972613288564E+00
 [a.u.] = [Bohr] -> [Angstrom]                              5.29177208590000E-01
 [a.u.] -> [s]                                              2.41888432650478E-17
 [a.u.] -> [fs]                                             2.41888432650478E-02
 [a.u.] -> [J]                                              4.35974393937059E-18
 [a.u.] -> [N]                                              8.23872205491840E-08
 [a.u.] -> [K]                                              3.15774647902944E+05
 [a.u.] -> [kJ/mol]                                         2.62549961709828E+03
 [a.u.] -> [kcal/mol]                                       6.27509468713739E+02
 [a.u.] -> [Pa]                                             2.94210107994716E+13
 [a.u.] -> [bar]                                            2.94210107994716E+08
 [a.u.] -> [atm]                                            2.90362800883016E+08
 [a.u.] -> [eV]                                             2.72113838565563E+01
 [a.u.] -> [Hz]                                             6.57968392072181E+15
 [a.u.] -> [1/cm] (wave numbers)                            2.19474631370540E+05
 [a.u./Bohr**2] -> [1/cm]                                   5.14048714338585E+03
 

 CELL_TOP| Volume [angstrom^3]:                                     27000.000000
 CELL_TOP| Vector a [angstrom    30.000     0.000     0.000   |a| =    30.000000
 CELL_TOP| Vector b [angstrom     0.000    30.000     0.000   |b| =    30.000000
 CELL_TOP| Vector c [angstrom     0.000     0.000    30.000   |c| =    30.000000
 CELL_TOP| Angle (b,c), alpha [degree]:                                90.000000
 CELL_TOP| Angle (a,c), beta  [degree]:                                90.000000
 CELL_TOP| Angle (a,b), gamma [degree]:                                90.000000
 CELL_TOP| Numerically orthorhombic:                                         YES
 CELL_TOP| Periodicity                                                      NONE

 GENERATE|  Preliminary Number of Bonds generated:                             0
 GENERATE|  Achieved consistency in connectivity generation.

 CELL| Volume [angstrom^3]:                                         27000.000000
 CELL| Vector a [angstrom]:      30.000     0.000     0.000   |a| =    30.000000
 CELL| Vector b [angstrom]:       0.000    30.000     0.000   |b| =    30.000000
 CELL| Vector c [angstrom]:       0.000     0.000    30.000   |c| =    30.000000
 CELL| Angle (b,c), alpha [degree]:                                    90.000000
 CELL| Angle (a,c), beta  [degree]:                                    90.000000
 CELL| Angle (a,b), gamma [degree]:                                    90.000000
 CELL| Numerically orthorhombic:                                             YES
 CELL| Periodicity                                                          NONE

 CELL_REF| Volume [angstrom^3]:                                     27000.000000
 CELL_REF| Vector a [angstrom    30.000     0.000     0.000   |a| =    30.000000
 CELL_REF| Vector b [angstrom     0.000    30.000     0.000   |b| =    30.000000
 CELL_REF| Vector c [angstrom     0.000     0.000    30.000   |c| =    30.000000
 CELL_REF| Angle (b,c), alpha [degree]:                                90.000000
 CELL_REF| Angle (a,c), beta  [degree]:                                90.000000
 CELL_REF| Angle (a,b), gamma [degree]:                                90.000000
 CELL_REF| Numerically orthorhombic:                                         YES
 CELL_REF| Periodicity                                                      NONE

 *******************************************************************************
 *******************************************************************************
 **                                                                           **
 **     #####                         ##              ##                      **
 **    ##   ##            ##          ##              ##                      **
 **   ##     ##                       ##            ######                    **
 **   ##     ##  ##   ##  ##   #####  ##  ##   ####   ##    #####    #####    **
 **   ##     ##  ##   ##  ##  ##      ## ##   ##      ##   ##   ##  ##   ##   **
 **   ##  ## ##  ##   ##  ##  ##      ####     ###    ##   ######   ######    **
 **    ##  ###   ##   ##  ##  ##      ## ##      ##   ##   ##       ##        **
 **     #######   #####   ##   #####  ##  ##  ####    ##    #####   ##        **
 **           ##                                                    ##        **
 **                                                                           **
 **                                                ... make the atoms dance   **
 **                                                                           **
 **            Copyright (C) by CP2K developers group (2000-2025)             **
 **                      J. Chem. Phys. 152, 194103 (2020)                    **
 **                                                                           **
 *******************************************************************************

 DFT| Spin restricted Kohn-Sham (RKS) calculation                            RKS
 DFT| Multiplicity                                                             1
 DFT| Number of spin states                                                    1
 DFT| Charge                                                                   0
 DFT| Self-interaction correction (SIC)                                       NO
 DFT| Cutoffs: density                                              1.000000E-10
 DFT|          gradient                                             1.000000E-10
 DFT|          tau                                                  1.000000E-10
 DFT|          cutoff_smoothing_range                               0.000000E+00
 DFT| XC density smoothing                                                  NONE
 DFT| XC derivatives                                                          PW

 FUNCTIONAL| PBE:
 FUNCTIONAL| J.P.Perdew, K.Burke, M.Ernzerhof, Phys. Rev. Letter, vol. 77, n 18,
 FUNCTIONAL|  pp. 3865-3868, (1996)sx=0.750sc=1.000{spin unpolarized}           


 QS| Method:                                                                GAPW
 QS| Density plane wave grid type                        NON-SPHERICAL FULLSPACE
 QS| Number of grid levels:                                                    4
 QS| Density cutoff [a.u.]:                                                250.0
 QS| Multi grid cutoff [a.u.]: 1) grid level                               250.0
 QS|                           2) grid level                                83.3
 QS|                           3) grid level                                27.8
 QS|                           4) grid level                                 9.3
 QS| Grid level progression factor:                                          3.0
 QS| Relative density cutoff [a.u.]:                                        50.0
 QS| Interaction thresholds: eps_pgf_orb:                                1.0E-12
 QS|                         eps_filter_matrix:                          0.0E+00
 QS|                         eps_core_charge:                            1.0E-14
 QS|                         eps_rho_gspace:                             1.0E-12
 QS|                         eps_rho_rspace:                             1.0E-12
 QS|                         eps_gvg_rspace:                             1.0E-06
 QS|                         eps_ppl:                                    1.0E-02
 QS|                         eps_ppnl:                                   1.0E-08
 QS| GAPW|      One center basis from orbital basis primitives
 QS| GAPW|                   eps_fit:                                    1.0E-04
 QS| GAPW|                   eps_iso:                                    1.0E-12
 QS| GAPW|                   eps_svd:                                    1.0E-08
 QS| GAPW|                   eps_cpc:                                    1.0E-12
 QS| GAPW|   atom-r-grid: quadrature:                                     GC_LOG
 QS| GAPW|      atom-s-grid:  max l :                                          6
 QS| GAPW|      max_l_rho0 :                                                   2


 ATOMIC KIND INFORMATION

  1. Atomic kind: S                                     Number of atoms:       3

     Orbital Basis Set                                        aug-DZVP-MOLOPT-ae

       Number of orbital shell sets:                                           3
       Number of orbital shells:                                              12
       Number of primitive Cartesian functions:                               18
       Number of Cartesian basis functions:                                   39
       Number of spherical basis functions:                                   34
       Norm type:                                                              2

       Normalised Cartesian orbitals:

                        Set   Shell   Orbital            Exponent    Coefficient

                          1       1    1s                0.070000       0.160238
                                                         0.132026      -0.106319
                                                         0.461903      -0.064590
                                                         2.043261       0.000000
                                                         6.030247       0.000000
                                                        18.817576       0.000000
                                                        61.243244       0.000000
                                                       262.037180       0.000000

                          1       2    2px               0.070000       0.000000
                                                         0.132026      -0.006041
                                                         0.461903       0.020884
                                                         2.043261      -1.163342
                                                         6.030247      -7.192527
                                                        18.817576     -14.902856
                                                        61.243244     -16.017959
                                                       262.037180     -14.606063
                          1       2    2py               0.070000       0.000000
                                                         0.132026      -0.006041
                                                         0.461903       0.020884
                                                         2.043261      -1.163342
                                                         6.030247      -7.192527
                                                        18.817576     -14.902856
                                                        61.243244     -16.017959
                                                       262.037180     -14.606063
                          1       2    2pz               0.070000       0.000000
                                                         0.132026      -0.006041
                                                         0.461903       0.020884
                                                         2.043261      -1.163342
                                                         6.030247      -7.192527
                                                        18.817576     -14.902856
                                                        61.243244     -16.017959
                                                       262.037180     -14.606063

                          1       3    3px               0.070000       0.000000
                                                         0.132026       0.013372
                                                         0.461903       0.460806
                                                         2.043261       0.527227
                                                         6.030247      -0.800963
                                                        18.817576       1.692650
                                                        61.243244      -2.127051
                                                       262.037180       6.627568
                          1       3    3py               0.070000       0.000000
                                                         0.132026       0.013372
                                                         0.461903       0.460806
                                                         2.043261       0.527227
                                                         6.030247      -0.800963
                                                        18.817576       1.692650
                                                        61.243244      -2.127051
                                                       262.037180       6.627568
                          1       3    3pz               0.070000       0.000000
                                                         0.132026       0.013372
                                                         0.461903       0.460806
                                                         2.043261       0.527227
                                                         6.030247      -0.800963
                                                        18.817576       1.692650
                                                        61.243244      -2.127051
                                                       262.037180       6.627568

                          1       4    4px               0.070000       0.000000
                                                         0.132026       0.122461
                                                         0.461903      -0.074630
                                                         2.043261      -0.266435
                                                         6.030247      -0.600117
                                                        18.817576      -2.837173
                                                        61.243244       0.679283
                                                       262.037180      -9.723876
                          1       4    4py               0.070000       0.000000
                                                         0.132026       0.122461
                                                         0.461903      -0.074630
                                                         2.043261      -0.266435
                                                         6.030247      -0.600117
                                                        18.817576      -2.837173
                                                        61.243244       0.679283
                                                       262.037180      -9.723876
                          1       4    4pz               0.070000       0.000000
                                                         0.132026       0.122461
                                                         0.461903      -0.074630
                                                         2.043261      -0.266435
                                                         6.030247      -0.600117
                                                        18.817576      -2.837173
                                                        61.243244       0.679283
                                                       262.037180      -9.723876

                          1       5    5px               0.070000      -0.010761
                                                         0.132026      -0.065366
                                                         0.461903       0.662552
                                                         2.043261       0.000000
                                                         6.030247       0.000000
                                                        18.817576       0.000000
                                                        61.243244       0.000000
                                                       262.037180       0.000000
                          1       5    5py               0.070000      -0.010761
                                                         0.132026      -0.065366
                                                         0.461903       0.662552
                                                         2.043261       0.000000
                                                         6.030247       0.000000
                                                        18.817576       0.000000
                                                        61.243244       0.000000
                                                       262.037180       0.000000
                          1       5    5pz               0.070000      -0.010761
                                                         0.132026      -0.065366
                                                         0.461903       0.662552
                                                         2.043261       0.000000
                                                         6.030247       0.000000
                                                        18.817576       0.000000
                                                        61.243244       0.000000
                                                       262.037180       0.000000

                          1       6    3dx2              0.070000       0.000000
                                                         0.132026       0.010167
                                                         0.461903       0.321348
                                                         2.043261       1.422467
                                                         6.030247      -0.691425
                                                        18.817576       4.642944
                                                        61.243244     -11.887587
                                                       262.037180      63.210336
                          1       6    3dxy              0.070000       0.000000
                                                         0.132026       0.017609
                                                         0.461903       0.556591
                                                         2.043261       2.463785
                                                         6.030247      -1.197583
                                                        18.817576       8.041814
                                                        61.243244     -20.589904
                                                       262.037180     109.483513
                          1       6    3dxz              0.070000       0.000000
                                                         0.132026       0.017609
                                                         0.461903       0.556591
                                                         2.043261       2.463785
                                                         6.030247      -1.197583
                                                        18.817576       8.041814
                                                        61.243244     -20.589904
                                                       262.037180     109.483513
                          1       6    3dy2              0.070000       0.000000
                                                         0.132026       0.010167
                                                         0.461903       0.321348
                                                         2.043261       1.422467
                                                         6.030247      -0.691425
                                                        18.817576       4.642944
                                                        61.243244     -11.887587
                                                       262.037180      63.210336
                          1       6    3dyz              0.070000       0.000000
                                                         0.132026       0.017609
                                                         0.461903       0.556591
                                                         2.043261       2.463785
                                                         6.030247      -1.197583
                                                        18.817576       8.041814
                                                        61.243244     -20.589904
                                                       262.037180     109.483513
                          1       6    3dz2              0.070000       0.000000
                                                         0.132026       0.010167
                                                         0.461903       0.321348
                                                         2.043261       1.422467
                                                         6.030247      -0.691425
                                                        18.817576       4.642944
                                                        61.243244     -11.887587
                                                       262.037180      63.210336

                          1       7    4dx2              0.070000       0.004993
                                                         0.132026       0.031835
                                                         0.461903       0.041246
                                                         2.043261       0.000000
                                                         6.030247       0.000000
                                                        18.817576       0.000000
                                                        61.243244       0.000000
                                                       262.037180       0.000000
                          1       7    4dxy              0.070000       0.008648
                                                         0.132026       0.055140
                                                         0.461903       0.071440
                                                         2.043261       0.000000
                                                         6.030247       0.000000
                                                        18.817576       0.000000
                                                        61.243244       0.000000
                                                       262.037180       0.000000
                          1       7    4dxz              0.070000       0.008648
                                                         0.132026       0.055140
                                                         0.461903       0.071440
                                                         2.043261       0.000000
                                                         6.030247       0.000000
                                                        18.817576       0.000000
                                                        61.243244       0.000000
                                                       262.037180       0.000000
                          1       7    4dy2              0.070000       0.004993
                                                         0.132026       0.031835
                                                         0.461903       0.041246
                                                         2.043261       0.000000
                                                         6.030247       0.000000
                                                        18.817576       0.000000
                                                        61.243244       0.000000
                                                       262.037180       0.000000
                          1       7    4dyz              0.070000       0.008648
                                                         0.132026       0.055140
                                                         0.461903       0.071440
                                                         2.043261       0.000000
                                                         6.030247       0.000000
                                                        18.817576       0.000000
                                                        61.243244       0.000000
                                                       262.037180       0.000000
                          1       7    4dz2              0.070000       0.004993
                                                         0.132026       0.031835
                                                         0.461903       0.041246
                                                         2.043261       0.000000
                                                         6.030247       0.000000
                                                        18.817576       0.000000
                                                        61.243244       0.000000
                                                       262.037180       0.000000

                          1       8    4fx3              0.070000       0.001179
                                                         0.132026       0.004915
                                                         0.461903       0.162520
                                                         2.043261       0.000000
                                                         6.030247       0.000000
                                                        18.817576       0.000000
                                                        61.243244       0.000000
                                                       262.037180       0.000000
                          1       8    4fx2y             0.070000       0.002636
                                                         0.132026       0.010991
                                                         0.461903       0.363406
                                                         2.043261       0.000000
                                                         6.030247       0.000000
                                                        18.817576       0.000000
                                                        61.243244       0.000000
                                                       262.037180       0.000000
                          1       8    4fx2z             0.070000       0.002636
                                                         0.132026       0.010991
                                                         0.461903       0.363406
                                                         2.043261       0.000000
                                                         6.030247       0.000000
                                                        18.817576       0.000000
                                                        61.243244       0.000000
                                                       262.037180       0.000000
                          1       8    4fxy2             0.070000       0.002636
                                                         0.132026       0.010991
                                                         0.461903       0.363406
                                                         2.043261       0.000000
                                                         6.030247       0.000000
                                                        18.817576       0.000000
                                                        61.243244       0.000000
                                                       262.037180       0.000000
                          1       8    4fxyz             0.070000       0.004567
                                                         0.132026       0.019037
                                                         0.461903       0.629438
                                                         2.043261       0.000000
                                                         6.030247       0.000000
                                                        18.817576       0.000000
                                                        61.243244       0.000000
                                                       262.037180       0.000000
                          1       8    4fxz2             0.070000       0.002636
                                                         0.132026       0.010991
                                                         0.461903       0.363406
                                                         2.043261       0.000000
                                                         6.030247       0.000000
                                                        18.817576       0.000000
                                                        61.243244       0.000000
                                                       262.037180       0.000000
                          1       8    4fy3              0.070000       0.001179
                                                         0.132026       0.004915
                                                         0.461903       0.162520
                                                         2.043261       0.000000
                                                         6.030247       0.000000
                                                        18.817576       0.000000
                                                        61.243244       0.000000
                                                       262.037180       0.000000
                          1       8    4fy2z             0.070000       0.002636
                                                         0.132026       0.010991
                                                         0.461903       0.363406
                                                         2.043261       0.000000
                                                         6.030247       0.000000
                                                        18.817576       0.000000
                                                        61.243244       0.000000
                                                       262.037180       0.000000
                          1       8    4fyz2             0.070000       0.002636
                                                         0.132026       0.010991
                                                         0.461903       0.363406
                                                         2.043261       0.000000
                                                         6.030247       0.000000
                                                        18.817576       0.000000
                                                        61.243244       0.000000
                                                       262.037180       0.000000
                          1       8    4fz3              0.070000       0.001179
                                                         0.132026       0.004915
                                                         0.461903       0.162520
                                                         2.043261       0.000000
                                                         6.030247       0.000000
                                                        18.817576       0.000000
                                                        61.243244       0.000000
                                                       262.037180       0.000000

                          2       1    1s               45.482850      -1.175639
                                                         4.876333       1.431452
                                                         1.864066       0.572778
                                                         0.430250      -0.034078
                                                         0.152872       0.004775

                          2       2    2s               45.482850      -0.314552
                                                         4.876333       0.236776
                                                         1.864066      -0.009167
                                                         0.430250       0.282804
                                                         0.152872       0.044200

                          2       3    3s               45.482850       0.143312
                                                         4.876333      -0.094249
                                                         1.864066      -0.118759
                                                         0.430250      -0.172982
                                                         0.152872       0.236834

                          3       1    1s             9184.968607      -3.488008
                                                      1381.514008      -6.811623
                                                       313.892819      -9.517673
                                                        87.514579     -10.059465
                                                        25.931396      -3.470689

     RI Auxiliary Basis Set                                    aug-cc-pV5Z-RIFIT

       Number of orbital shell sets:                                          55
       Number of orbital shells:                                              55
       Number of primitive Cartesian functions:                               55
       Number of Cartesian basis functions:                                  419
       Number of spherical basis functions:                                  279
       Norm type:                                                              2

       Normalised Cartesian orbitals:

                        Set   Shell   Orbital            Exponent    Coefficient

                          1       1    1s                0.065000       0.091748

                          2       1    1dx2              0.086077       0.022515
                          2       1    1dxy              0.086077       0.038996
                          2       1    1dxz              0.086077       0.038996
                          2       1    1dy2              0.086077       0.022515
                          2       1    1dyz              0.086077       0.038996
                          2       1    1dz2              0.086077       0.022515

                          3       1    1px               0.090000       0.070266
                          3       1    1py               0.090000       0.070266
                          3       1    1pz               0.090000       0.070266

                          4       1    1fx3              0.153577       0.021736
                          4       1    1fx2y             0.153577       0.048604
                          4       1    1fx2z             0.153577       0.048604
                          4       1    1fxy2             0.153577       0.048604
                          4       1    1fxyz             0.153577       0.084185
                          4       1    1fxz2             0.153577       0.048604
                          4       1    1fy3              0.153577       0.021736
                          4       1    1fy2z             0.153577       0.048604
                          4       1    1fyz2             0.153577       0.048604
                          4       1    1fz3              0.153577       0.021736

                          5       1    1s                0.157649       0.178311

                          6       1    1dx2              0.197272       0.096111
                          6       1    1dxy              0.197272       0.166469
                          6       1    1dxz              0.197272       0.166469
                          6       1    1dy2              0.197272       0.096111
                          6       1    1dyz              0.197272       0.166469
                          6       1    1dz2              0.197272       0.096111

                          7       1    1gx4              0.208446       0.014917
                          7       1    1gx3y             0.208446       0.039465
                          7       1    1gx3z             0.208446       0.039465
                          7       1    1gx2y2            0.208446       0.050950
                          7       1    1gx2yz            0.208446       0.088247
                          7       1    1gx2z2            0.208446       0.050950
                          7       1    1gxy3             0.208446       0.039465
                          7       1    1gxy2z            0.208446       0.088247
                          7       1    1gxyz2            0.208446       0.088247
                          7       1    1gxz3             0.208446       0.039465
                          7       1    1gy4              0.208446       0.014917
                          7       1    1gy3z             0.208446       0.039465
                          7       1    1gy2z2            0.208446       0.050950
                          7       1    1gyz3             0.208446       0.039465
                          7       1    1gz4              0.208446       0.014917

                          8       1    1px               0.209989       0.202622
                          8       1    1py               0.209989       0.202622
                          8       1    1pz               0.209989       0.202622

                          9       1    1s                0.279888       0.274251

                         10       1    1hx5              0.349328       0.024314
                         10       1    1hx4y             0.349328       0.072941
                         10       1    1hx4z             0.349328       0.072941
                         10       1    1hx3y2            0.349328       0.111420
                         10       1    1hx3yz            0.349328       0.192985
                         10       1    1hx3z2            0.349328       0.111420
                         10       1    1hx2y3            0.349328       0.111420
                         10       1    1hx2y2z           0.349328       0.249142
                         10       1    1hx2yz2           0.349328       0.249142
                         10       1    1hx2z3            0.349328       0.111420
                         10       1    1hxy4             0.349328       0.072941
                         10       1    1hxy3z            0.349328       0.192985
                         10       1    1hxy2z2           0.349328       0.249142
                         10       1    1hxyz3            0.349328       0.192985
                         10       1    1hxz4             0.349328       0.072941
                         10       1    1hy5              0.349328       0.024314
                         10       1    1hy4z             0.349328       0.072941
                         10       1    1hy3z2            0.349328       0.111420
                         10       1    1hy2z3            0.349328       0.111420
                         10       1    1hyz4             0.349328       0.072941
                         10       1    1hz5              0.349328       0.024314

                         11       1    1fx3              0.352049       0.140544
                         11       1    1fx2y             0.352049       0.314265
                         11       1    1fx2z             0.352049       0.314265
                         11       1    1fxy2             0.352049       0.314265
                         11       1    1fxyz             0.352049       0.544324
                         11       1    1fxz2             0.352049       0.314265
                         11       1    1fy3              0.352049       0.140544
                         11       1    1fy2z             0.352049       0.314265
                         11       1    1fyz2             0.352049       0.314265
                         11       1    1fz3              0.352049       0.140544

                         12       1    1dx2              0.362559       0.278819
                         12       1    1dxy              0.362559       0.482928
                         12       1    1dxz              0.362559       0.482928
                         12       1    1dy2              0.362559       0.278819
                         12       1    1dyz              0.362559       0.482928
                         12       1    1dz2              0.362559       0.278819

                         13       1    1gx4              0.397931       0.088289
                         13       1    1gx3y             0.397931       0.233591
                         13       1    1gx3z             0.397931       0.233591
                         13       1    1gx2y2            0.397931       0.301564
                         13       1    1gx2yz            0.397931       0.522325
                         13       1    1gx2z2            0.397931       0.301564
                         13       1    1gxy3             0.397931       0.233591
                         13       1    1gxy2z            0.397931       0.522325
                         13       1    1gxyz2            0.397931       0.522325
                         13       1    1gxz3             0.397931       0.233591
                         13       1    1gy4              0.397931       0.088289
                         13       1    1gy3z             0.397931       0.233591
                         13       1    1gy2z2            0.397931       0.301564
                         13       1    1gyz3             0.397931       0.233591
                         13       1    1gz4              0.397931       0.088289

                         14       1    1px               0.416555       0.477013
                         14       1    1py               0.416555       0.477013
                         14       1    1pz               0.416555       0.477013

                         15       1    1s                0.571860       0.468681

                         16       1    1px               0.651606       0.834491
                         16       1    1py               0.651606       0.834491
                         16       1    1pz               0.651606       0.834491

                         17       1    1fx3              0.652248       0.562838
                         17       1    1fx2y             0.652248       1.258543
                         17       1    1fx2z             0.652248       1.258543
                         17       1    1fxy2             0.652248       1.258543
                         17       1    1fxyz             0.652248       2.179861
                         17       1    1fxz2             0.652248       1.258543
                         17       1    1fy3              0.652248       0.562838
                         17       1    1fy2z             0.652248       1.258543
                         17       1    1fyz2             0.652248       1.258543
                         17       1    1fz3              0.652248       0.562838

                         18       1    1ix6              0.679532       0.105067
                         18       1    1ix5y             0.679532       0.348467
                         18       1    1ix5z             0.679532       0.348467
                         18       1    1ix4y2            0.679532       0.603562
                         18       1    1ix4yz            0.679532       1.045400
                         18       1    1ix4z2            0.679532       0.603562
                         18       1    1ix3y3            0.679532       0.714144
                         18       1    1ix3y2z           0.679532       1.596875
                         18       1    1ix3yz2           0.679532       1.596875
                         18       1    1ix3z3            0.679532       0.714144
                         18       1    1ix2y4            0.679532       0.603562
                         18       1    1ix2y3z           0.679532       1.596875
                         18       1    1ix2y2z2          0.679532       2.061557
                         18       1    1ix2yz3           0.679532       1.596875
                         18       1    1ix2z4            0.679532       0.603562
                         18       1    1ixy5             0.679532       0.348467
                         18       1    1ixy4z            0.679532       1.045400
                         18       1    1ixy3z2           0.679532       1.596875
                         18       1    1ixy2z3           0.679532       1.596875
                         18       1    1ixyz4            0.679532       1.045400
                         18       1    1ixz5             0.679532       0.348467
                         18       1    1iy6              0.679532       0.105067
                         18       1    1iy5z             0.679532       0.348467
                         18       1    1iy4z2            0.679532       0.603562
                         18       1    1iy3z3            0.679532       0.714144
                         18       1    1iy2z4            0.679532       0.603562
                         18       1    1iyz5             0.679532       0.348467
                         18       1    1iz6              0.679532       0.105067

                         19       1    1dx2              0.682681       0.843899
                         19       1    1dxy              0.682681       1.461676
                         19       1    1dxz              0.682681       1.461676
                         19       1    1dy2              0.682681       0.843899
                         19       1    1dyz              0.682681       1.461676
                         19       1    1dz2              0.682681       0.843899

                         20       1    1hx5              0.718603       0.253474
                         20       1    1hx4y             0.718603       0.760422
                         20       1    1hx4z             0.718603       0.760422
                         20       1    1hx3y2            0.718603       1.161564
                         20       1    1hx3yz            0.718603       2.011888
                         20       1    1hx3z2            0.718603       1.161564
                         20       1    1hx2y3            0.718603       1.161564
                         20       1    1hx2y2z           0.718603       2.597336
                         20       1    1hx2yz2           0.718603       2.597336
                         20       1    1hx2z3            0.718603       1.161564
                         20       1    1hxy4             0.718603       0.760422
                         20       1    1hxy3z            0.718603       2.011888
                         20       1    1hxy2z2           0.718603       2.597336
                         20       1    1hxyz3            0.718603       2.011888
                         20       1    1hxz4             0.718603       0.760422
                         20       1    1hy5              0.718603       0.253474
                         20       1    1hy4z             0.718603       0.760422
                         20       1    1hy3z2            0.718603       1.161564
                         20       1    1hy2z3            0.718603       1.161564
                         20       1    1hyz4             0.718603       0.760422
                         20       1    1hz5              0.718603       0.253474

                         21       1    1gx4              0.800123       0.602721
                         21       1    1gx3y             0.800123       1.594651
                         21       1    1gx3z             0.800123       1.594651
                         21       1    1gx2y2            0.800123       2.058685
                         21       1    1gx2yz            0.800123       3.565747
                         21       1    1gx2z2            0.800123       2.058685
                         21       1    1gxy3             0.800123       1.594651
                         21       1    1gxy2z            0.800123       3.565747
                         21       1    1gxyz2            0.800123       3.565747
                         21       1    1gxz3             0.800123       1.594651
                         21       1    1gy4              0.800123       0.602721
                         21       1    1gy3z             0.800123       1.594651
                         21       1    1gy2z2            0.800123       2.058685
                         21       1    1gyz3             0.800123       1.594651
                         21       1    1gz4              0.800123       0.602721

                         22       1    1s                0.892243       0.654293

                         23       1    1px               0.942964       1.324521
                         23       1    1py               0.942964       1.324521
                         23       1    1pz               0.942964       1.324521

                         24       1    1ix6              1.217610       0.936124
                         24       1    1ix5y             1.217610       3.104774
                         24       1    1ix5z             1.217610       3.104774
                         24       1    1ix4y2            1.217610       5.377626
                         24       1    1ix4yz            1.217610       9.314321
                         24       1    1ix4z2            1.217610       5.377626
                         24       1    1ix3y3            1.217610       6.362892
                         24       1    1ix3y2z           1.217610      14.227860
                         24       1    1ix3yz2           1.217610      14.227860
                         24       1    1ix3z3            1.217610       6.362892
                         24       1    1ix2y4            1.217610       5.377626
                         24       1    1ix2y3z           1.217610      14.227860
                         24       1    1ix2y2z2          1.217610      18.368088
                         24       1    1ix2yz3           1.217610      14.227860
                         24       1    1ix2z4            1.217610       5.377626
                         24       1    1ixy5             1.217610       3.104774
                         24       1    1ixy4z            1.217610       9.314321
                         24       1    1ixy3z2           1.217610      14.227860
                         24       1    1ixy2z3           1.217610      14.227860
                         24       1    1ixyz4            1.217610       9.314321
                         24       1    1ixz5             1.217610       3.104774
                         24       1    1iy6              1.217610       0.936124
                         24       1    1iy5z             1.217610       3.104774
                         24       1    1iy4z2            1.217610       5.377626
                         24       1    1iy3z3            1.217610       6.362892
                         24       1    1iy2z4            1.217610       5.377626
                         24       1    1iyz5             1.217610       3.104774
                         24       1    1iz6              1.217610       0.936124

                         25       1    1dx2              1.252180       2.439643
                         25       1    1dxy              1.252180       4.225586
                         25       1    1dxz              1.252180       4.225586
                         25       1    1dy2              1.252180       2.439643
                         25       1    1dyz              1.252180       4.225586
                         25       1    1dz2              1.252180       2.439643

                         26       1    1fx3              1.256690       2.461602
                         26       1    1fx2y             1.256690       5.504309
                         26       1    1fx2z             1.256690       5.504309
                         26       1    1fxy2             1.256690       5.504309
                         26       1    1fxyz             1.256690       9.533743
                         26       1    1fxz2             1.256690       5.504309
                         26       1    1fy3              1.256690       2.461602
                         26       1    1fy2z             1.256690       5.504309
                         26       1    1fyz2             1.256690       5.504309
                         26       1    1fz3              1.256690       2.461602

                         27       1    1gx4              1.329300       2.434438
                         27       1    1gx3y             1.329300       6.440917
                         27       1    1gx3z             1.329300       6.440917
                         27       1    1gx2y2            1.329300       8.315188
                         27       1    1gx2yz            1.329300      14.402328
                         27       1    1gx2z2            1.329300       8.315188
                         27       1    1gxy3             1.329300       6.440917
                         27       1    1gxy2z            1.329300      14.402328
                         27       1    1gxyz2            1.329300      14.402328
                         27       1    1gxz3             1.329300       6.440917
                         27       1    1gy4              1.329300       2.434438
                         27       1    1gy3z             1.329300       6.440917
                         27       1    1gy2z2            1.329300       8.315188
                         27       1    1gyz3             1.329300       6.440917
                         27       1    1gz4              1.329300       2.434438

                         28       1    1hx5              1.377130       2.099001
                         28       1    1hx4y             1.377130       6.297004
                         28       1    1hx4z             1.377130       6.297004
                         28       1    1hx3y2            1.377130       9.618833
                         28       1    1hx3yz            1.377130      16.660307
                         28       1    1hx3z2            1.377130       9.618833
                         28       1    1hx2y3            1.377130       9.618833
                         28       1    1hx2y2z           1.377130      21.508364
                         28       1    1hx2yz2           1.377130      21.508364
                         28       1    1hx2z3            1.377130       9.618833
                         28       1    1hxy4             1.377130       6.297004
                         28       1    1hxy3z            1.377130      16.660307
                         28       1    1hxy2z2           1.377130      21.508364
                         28       1    1hxyz3            1.377130      16.660307
                         28       1    1hxz4             1.377130       6.297004
                         28       1    1hy5              1.377130       2.099001
                         28       1    1hy4z             1.377130       6.297004
                         28       1    1hy3z2            1.377130       9.618833
                         28       1    1hy2z3            1.377130       9.618833
                         28       1    1hyz4             1.377130       6.297004
                         28       1    1hz5              1.377130       2.099001

                         29       1    1s                1.545010       0.987662

                         30       1    1px               1.559320       2.483757
                         30       1    1py               1.559320       2.483757
                         30       1    1pz               1.559320       2.483757

                         31       1    1fx3              1.753440       5.208456
                         31       1    1fx2y             1.753440      11.646462
                         31       1    1fx2z             1.753440      11.646462
                         31       1    1fxy2             1.753440      11.646462
                         31       1    1fxyz             1.753440      20.172263
                         31       1    1fxz2             1.753440      11.646462
                         31       1    1fy3              1.753440       5.208456
                         31       1    1fy2z             1.753440      11.646462
                         31       1    1fyz2             1.753440      11.646462
                         31       1    1fz3              1.753440       5.208456

                         32       1    1dx2              1.908710       5.101576
                         32       1    1dxy              1.908710       8.836189
                         32       1    1dxz              1.908710       8.836189
                         32       1    1dy2              1.908710       5.101576
                         32       1    1dyz              1.908710       8.836189
                         32       1    1dz2              1.908710       5.101576

                         33       1    1gx4              2.415590      12.581989
                         33       1    1gx3y             2.415590      33.288813
                         33       1    1gx3z             2.415590      33.288813
                         33       1    1gx2y2            2.415590      42.975673
                         33       1    1gx2yz            2.415590      74.436049
                         33       1    1gx2z2            2.415590      42.975673
                         33       1    1gxy3             2.415590      33.288813
                         33       1    1gxy2z            2.415590      74.436049
                         33       1    1gxyz2            2.415590      74.436049
                         33       1    1gxz3             2.415590      33.288813
                         33       1    1gy4              2.415590      12.581989
                         33       1    1gy3z             2.415590      33.288813
                         33       1    1gy2z2            2.415590      42.975673
                         33       1    1gyz3             2.415590      33.288813
                         33       1    1gz4              2.415590      12.581989

                         34       1    1s                3.136310       1.679671

                         35       1    1px               3.362740       6.490927
                         35       1    1py               3.362740       6.490927
                         35       1    1pz               3.362740       6.490927

                         36       1    1hx5              3.404060      39.749813
                         36       1    1hx4y             3.404060     119.249438
                         36       1    1hx4z             3.404060     119.249438
                         36       1    1hx3y2            3.404060     182.156526
                         36       1    1hx3yz            3.404060     315.504357
                         36       1    1hx3z2            3.404060     182.156526
                         36       1    1hx2y3            3.404060     182.156526
                         36       1    1hx2y2z           3.404060     407.314374
                         36       1    1hx2yz2           3.404060     407.314374
                         36       1    1hx2z3            3.404060     182.156526
                         36       1    1hxy4             3.404060     119.249438
                         36       1    1hxy3z            3.404060     315.504357
                         36       1    1hxy2z2           3.404060     407.314374
                         36       1    1hxyz3            3.404060     315.504357
                         36       1    1hxz4             3.404060     119.249438
                         36       1    1hy5              3.404060      39.749813
                         36       1    1hy4z             3.404060     119.249438
                         36       1    1hy3z2            3.404060     182.156526
                         36       1    1hy2z3            3.404060     182.156526
                         36       1    1hyz4             3.404060     119.249438
                         36       1    1hz5              3.404060      39.749813

                         37       1    1fx3              4.159680      36.378038
                         37       1    1fx2y             4.159680      81.343766
                         37       1    1fx2z             4.159680      81.343766
                         37       1    1fxy2             4.159680      81.343766
                         37       1    1fxyz             4.159680     140.891536
                         37       1    1fxz2             4.159680      81.343766
                         37       1    1fy3              4.159680      36.378038
                         37       1    1fy2z             4.159680      81.343766
                         37       1    1fyz2             4.159680      81.343766
                         37       1    1fz3              4.159680      36.378038

                         38       1    1dx2              5.060970      28.107262
                         38       1    1dxy              5.060970      48.683206
                         38       1    1dxz              5.060970      48.683206
                         38       1    1dy2              5.060970      28.107262
                         38       1    1dyz              5.060970      48.683206
                         38       1    1dz2              5.060970      28.107262

                         39       1    1gx4              5.629410     128.886772
                         39       1    1gx3y             5.629410     341.002345
                         39       1    1gx3z             5.629410     341.002345
                         39       1    1gx2y2            5.629410     440.232135
                         39       1    1gx2yz            5.629410     762.504425
                         39       1    1gx2z2            5.629410     440.232135
                         39       1    1gxy3             5.629410     341.002345
                         39       1    1gxy2z            5.629410     762.504425
                         39       1    1gxyz2            5.629410     762.504425
                         39       1    1gxz3             5.629410     341.002345
                         39       1    1gy4              5.629410     128.886772
                         39       1    1gy3z             5.629410     341.002345
                         39       1    1gy2z2            5.629410     440.232135
                         39       1    1gyz3             5.629410     341.002345
                         39       1    1gz4              5.629410     128.886772

                         40       1    1s                6.042910       2.746912

                         41       1    1px               6.862790      15.833101
                         41       1    1py               6.862790      15.833101
                         41       1    1pz               6.862790      15.833101

                         42       1    1fx3              8.742590     193.483841
                         42       1    1fx2y             8.742590     432.643022
                         42       1    1fx2z             8.742590     432.643022
                         42       1    1fxy2             8.742590     432.643022
                         42       1    1fxyz             8.742590     749.359696
                         42       1    1fxz2             8.742590     432.643022
                         42       1    1fy3              8.742590     193.483841
                         42       1    1fy2z             8.742590     432.643022
                         42       1    1fyz2             8.742590     432.643022
                         42       1    1fz3              8.742590     193.483841

                         43       1    1dx2             10.412400      99.339835
                         43       1    1dxy             10.412400     172.061641
                         43       1    1dxz             10.412400     172.061641
                         43       1    1dy2             10.412400      99.339835
                         43       1    1dyz             10.412400     172.061641
                         43       1    1dz2             10.412400      99.339835

                         44       1    1s               12.843200       4.835206

                         45       1    1px              15.525000      43.926803
                         45       1    1py              15.525000      43.926803
                         45       1    1pz              15.525000      43.926803

                         46       1    1fx3             18.275800    1016.661418
                         46       1    1fx2y            18.275800    2273.324040
                         46       1    1fx2z            18.275800    2273.324040
                         46       1    1fxy2            18.275800    2273.324040
                         46       1    1fxyz            18.275800    3937.512739
                         46       1    1fxz2            18.275800    2273.324040
                         46       1    1fy3             18.275800    1016.661418
                         46       1    1fy2z            18.275800    2273.324040
                         46       1    1fyz2            18.275800    2273.324040
                         46       1    1fz3             18.275800    1016.661418

                         47       1    1s               28.010800       8.677692

                         48       1    1dx2             31.280400     680.982541
                         48       1    1dxy             31.280400    1179.496360
                         48       1    1dxz             31.280400    1179.496360
                         48       1    1dy2             31.280400     680.982541
                         48       1    1dyz             31.280400    1179.496360
                         48       1    1dz2             31.280400     680.982541

                         49       1    1px              32.378100     110.091626
                         49       1    1py              32.378100     110.091626
                         49       1    1pz              32.378100     110.091626

                         50       1    1px              91.908000     405.631555
                         50       1    1py              91.908000     405.631555
                         50       1    1pz              91.908000     405.631555

                         51       1    1dx2             95.737500    4822.842736
                         51       1    1dxy             95.737500    8353.408656
                         51       1    1dxz             95.737500    8353.408656
                         51       1    1dy2             95.737500    4822.842736
                         51       1    1dyz             95.737500    8353.408656
                         51       1    1dz2             95.737500    4822.842736

                         52       1    1s               98.446100      22.274552

                         53       1    1s              244.799000      44.107996

                         54       1    1px             305.733000    1822.292070
                         54       1    1py             305.733000    1822.292070
                         54       1    1pz             305.733000    1822.292070

                         55       1    1s             1061.140000     132.507240

       Atomic covalent radius [Angstrom]:                                  1.020

       Atomic van der Waals radius [Angstrom]:                             1.800

     The atoms of this atomic kind are PAW atoms (GAPW):
       Hard Gaussian function radius:                                      1.512
       Rho0 radius:                                                        1.512
       Maximum GTO radius used for PAW projector construction:            24.566

     GAPW Soft Basis Set                                 aug-DZVP-MOLOPT-ae_soft

       Number of orbital shell sets:                                           3
       Number of orbital shells:                                              12
       Number of primitive Cartesian functions:                                7
       Number of Cartesian basis functions:                                   39
       Number of spherical basis functions:                                   34
       Norm type:                                                              2

       Normalised Cartesian orbitals:

                        Set   Shell   Orbital            Exponent    Coefficient

                          1       1    1s                0.070000       0.160238
                                                         0.132026      -0.106319
                                                         0.461903      -0.064590
                                                         2.043261       0.000000

                          1       2    2px               0.070000       0.000000
                                                         0.132026      -0.006041
                                                         0.461903       0.020884
                                                         2.043261      -1.163342
                          1       2    2py               0.070000       0.000000
                                                         0.132026      -0.006041
                                                         0.461903       0.020884
                                                         2.043261      -1.163342
                          1       2    2pz               0.070000       0.000000
                                                         0.132026      -0.006041
                                                         0.461903       0.020884
                                                         2.043261      -1.163342

                          1       3    3px               0.070000       0.000000
                                                         0.132026       0.013372
                                                         0.461903       0.460806
                                                         2.043261       0.527227
                          1       3    3py               0.070000       0.000000
                                                         0.132026       0.013372
                                                         0.461903       0.460806
                                                         2.043261       0.527227
                          1       3    3pz               0.070000       0.000000
                                                         0.132026       0.013372
                                                         0.461903       0.460806
                                                         2.043261       0.527227

                          1       4    4px               0.070000       0.000000
                                                         0.132026       0.122461
                                                         0.461903      -0.074630
                                                         2.043261      -0.266435
                          1       4    4py               0.070000       0.000000
                                                         0.132026       0.122461
                                                         0.461903      -0.074630
                                                         2.043261      -0.266435
                          1       4    4pz               0.070000       0.000000
                                                         0.132026       0.122461
                                                         0.461903      -0.074630
                                                         2.043261      -0.266435

                          1       5    5px               0.070000      -0.010761
                                                         0.132026      -0.065366
                                                         0.461903       0.662552
                                                         2.043261       0.000000
                          1       5    5py               0.070000      -0.010761
                                                         0.132026      -0.065366
                                                         0.461903       0.662552
                                                         2.043261       0.000000
                          1       5    5pz               0.070000      -0.010761
                                                         0.132026      -0.065366
                                                         0.461903       0.662552
                                                         2.043261       0.000000

                          1       6    3dx2              0.070000       0.000000
                                                         0.132026       0.010167
                                                         0.461903       0.321348
                                                         2.043261       1.422467
                          1       6    3dxy              0.070000       0.000000
                                                         0.132026       0.017609
                                                         0.461903       0.556591
                                                         2.043261       2.463785
                          1       6    3dxz              0.070000       0.000000
                                                         0.132026       0.017609
                                                         0.461903       0.556591
                                                         2.043261       2.463785
                          1       6    3dy2              0.070000       0.000000
                                                         0.132026       0.010167
                                                         0.461903       0.321348
                                                         2.043261       1.422467
                          1       6    3dyz              0.070000       0.000000
                                                         0.132026       0.017609
                                                         0.461903       0.556591
                                                         2.043261       2.463785
                          1       6    3dz2              0.070000       0.000000
                                                         0.132026       0.010167
                                                         0.461903       0.321348
                                                         2.043261       1.422467

                          1       7    4dx2              0.070000       0.004993
                                                         0.132026       0.031835
                                                         0.461903       0.041246
                                                         2.043261       0.000000
                          1       7    4dxy              0.070000       0.008648
                                                         0.132026       0.055140
                                                         0.461903       0.071440
                                                         2.043261       0.000000
                          1       7    4dxz              0.070000       0.008648
                                                         0.132026       0.055140
                                                         0.461903       0.071440
                                                         2.043261       0.000000
                          1       7    4dy2              0.070000       0.004993
                                                         0.132026       0.031835
                                                         0.461903       0.041246
                                                         2.043261       0.000000
                          1       7    4dyz              0.070000       0.008648
                                                         0.132026       0.055140
                                                         0.461903       0.071440
                                                         2.043261       0.000000
                          1       7    4dz2              0.070000       0.004993
                                                         0.132026       0.031835
                                                         0.461903       0.041246
                                                         2.043261       0.000000

                          1       8    4fx3              0.070000       0.001179
                                                         0.132026       0.004915
                                                         0.461903       0.162520
                                                         2.043261       0.000000
                          1       8    4fx2y             0.070000       0.002636
                                                         0.132026       0.010991
                                                         0.461903       0.363406
                                                         2.043261       0.000000
                          1       8    4fx2z             0.070000       0.002636
                                                         0.132026       0.010991
                                                         0.461903       0.363406
                                                         2.043261       0.000000
                          1       8    4fxy2             0.070000       0.002636
                                                         0.132026       0.010991
                                                         0.461903       0.363406
                                                         2.043261       0.000000
                          1       8    4fxyz             0.070000       0.004567
                                                         0.132026       0.019037
                                                         0.461903       0.629438
                                                         2.043261       0.000000
                          1       8    4fxz2             0.070000       0.002636
                                                         0.132026       0.010991
                                                         0.461903       0.363406
                                                         2.043261       0.000000
                          1       8    4fy3              0.070000       0.001179
                                                         0.132026       0.004915
                                                         0.461903       0.162520
                                                         2.043261       0.000000
                          1       8    4fy2z             0.070000       0.002636
                                                         0.132026       0.010991
                                                         0.461903       0.363406
                                                         2.043261       0.000000
                          1       8    4fyz2             0.070000       0.002636
                                                         0.132026       0.010991
                                                         0.461903       0.363406
                                                         2.043261       0.000000
                          1       8    4fz3              0.070000       0.001179
                                                         0.132026       0.004915
                                                         0.461903       0.162520
                                                         2.043261       0.000000

                          2       1    1s                1.864066       0.572778
                                                         0.430250      -0.034078
                                                         0.152872       0.004775

                          2       2    2s                1.864066      -0.009167
                                                         0.430250       0.282804
                                                         0.152872       0.044200

                          2       3    3s                1.864066      -0.118759
                                                         0.430250      -0.172982
                                                         0.152872       0.236834

                          3       1    1s         

     AE Potential information for                                            ALL

       Description:                                       All-electron potential
                                          Krack, Parrinello, PCCP 2, 2105 (2000)

       Gaussian exponent of the core charge distribution:               2.834467
       Electronic configuration (s p d ...):                           6  10   0

  2. Atomic kind: N                                     Number of atoms:       2

     Orbital Basis Set                                        aug-DZVP-MOLOPT-ae

       Number of orbital shell sets:                                           2
       Number of orbital shells:                                              10
       Number of primitive Cartesian functions:                               12
       Number of Cartesian basis functions:                                   35
       Number of spherical basis functions:                                   30
       Norm type:                                                              2

       Normalised Cartesian orbitals:

                        Set   Shell   Orbital            Exponent    Coefficient

                          1       1    2s                0.060000      -0.096639
                                                         0.166384       0.037538
                                                         0.634073      -0.055669
                                                         2.325354       0.000000
                                                        12.268174       0.000000

                          1       2    3px               0.060000       0.000000
                                                         0.166384      -0.031930
                                                         0.634073      -0.492962
                                                         2.325354      -1.380142
                                                        12.268174      -2.349358
                          1       2    3py               0.060000       0.000000
                                                         0.166384      -0.031930
                                                         0.634073      -0.492962
                                                         2.325354      -1.380142
                                                        12.268174      -2.349358
                          1       2    3pz               0.060000       0.000000
                                                         0.166384      -0.031930
                                                         0.634073      -0.492962
                                                         2.325354      -1.380142
                                                        12.268174      -2.349358

                          1       3    4px               0.060000       0.000000
                                                         0.166384       0.169694
                                                         0.634073      -0.220766
                                                         2.325354      -0.809234
                                                        12.268174      -0.998521
                          1       3    4py               0.060000       0.000000
                                                         0.166384       0.169694
                                                         0.634073      -0.220766
                                                         2.325354      -0.809234
                                                        12.268174      -0.998521
                          1       3    4pz               0.060000       0.000000
                                                         0.166384       0.169694
                                                         0.634073      -0.220766
                                                         2.325354      -0.809234
                                                        12.268174      -0.998521

                          1       4    5px               0.060000       0.028594
                                                         0.166384       0.063224
                                                         0.634073      -0.046183
                                                         2.325354       0.000000
                                                        12.268174       0.000000
                          1       4    5py               0.060000       0.028594
                                                         0.166384       0.063224
                                                         0.634073      -0.046183
                                                         2.325354       0.000000
                                                        12.268174       0.000000
                          1       4    5pz               0.060000       0.028594
                                                         0.166384       0.063224
                                                         0.634073      -0.046183
                                                         2.325354       0.000000
                                                        12.268174       0.000000

                          1       5    4dx2              0.060000       0.000000
                                                         0.166384       0.019402
                                                         0.634073       0.555487
                                                         2.325354       1.255926
                                                        12.268174      -0.426175
                          1       5    4dxy              0.060000       0.000000
                                                         0.166384       0.033606
                                                         0.634073       0.962132
                                                         2.325354       2.175327
                                                        12.268174      -0.738157
                          1       5    4dxz              0.060000       0.000000
                                                         0.166384       0.033606
                                                         0.634073       0.962132
                                                         2.325354       2.175327
                                                        12.268174      -0.738157
                          1       5    4dy2              0.060000       0.000000
                                                         0.166384       0.019402
                                                         0.634073       0.555487
                                                         2.325354       1.255926
                                                        12.268174      -0.426175
                          1       5    4dyz              0.060000       0.000000
                                                         0.166384       0.033606
                                                         0.634073       0.962132
                                                         2.325354       2.175327
                                                        12.268174      -0.738157
                          1       5    4dz2              0.060000       0.000000
                                                         0.166384       0.019402
                                                         0.634073       0.555487
                                                         2.325354       1.255926
                                                        12.268174      -0.426175

                          1       6    5dx2              0.060000      -0.008089
                                                         0.166384      -0.027907
                                                         0.634073      -0.057221
                                                         2.325354       0.000000
                                                        12.268174       0.000000
                          1       6    5dxy              0.060000      -0.014011
                                                         0.166384      -0.048336
                                                         0.634073      -0.099109
                                                         2.325354       0.000000
                                                        12.268174       0.000000
                          1       6    5dxz              0.060000      -0.014011
                                                         0.166384      -0.048336
                                                         0.634073      -0.099109
                                                         2.325354       0.000000
                                                        12.268174       0.000000
                          1       6    5dy2              0.060000      -0.008089
                                                         0.166384      -0.027907
                                                         0.634073      -0.057221
                                                         2.325354       0.000000
                                                        12.268174       0.000000
                          1       6    5dyz              0.060000      -0.014011
                                                         0.166384      -0.048336
                                                         0.634073      -0.099109
                                                         2.325354       0.000000
                                                        12.268174       0.000000
                          1       6    5dz2              0.060000      -0.008089
                                                         0.166384      -0.027907
                                                         0.634073      -0.057221
                                                         2.325354       0.000000
                                                        12.268174       0.000000

                          1       7    5fx3              0.060000       0.000067
                                                         0.166384       0.012645
                                                         0.634073       0.328269
                                                         2.325354       1.687172
                                                        12.268174       0.000000
                          1       7    5fx2y             0.060000       0.000150
                                                         0.166384       0.028275
                                                         0.634073       0.734031
                                                         2.325354       3.772631
                                                        12.268174       0.000000
                          1       7    5fx2z             0.060000       0.000150
                                                         0.166384       0.028275
                                                         0.634073       0.734031
                                                         2.325354       3.772631
                                                        12.268174       0.000000
                          1       7    5fxy2             0.060000       0.000150
                                                         0.166384       0.028275
                                                         0.634073       0.734031
                                                         2.325354       3.772631
                                                        12.268174       0.000000
                          1       7    5fxyz             0.060000       0.000260
                                                         0.166384       0.048973
                                                         0.634073       1.271379
                                                         2.325354       6.534389
                                                        12.268174       0.000000
                          1       7    5fxz2             0.060000       0.000150
                                                         0.166384       0.028275
                                                         0.634073       0.734031
                                                         2.325354       3.772631
                                                        12.268174       0.000000
                          1       7    5fy3              0.060000       0.000067
                                                         0.166384       0.012645
                                                         0.634073       0.328269
                                                         2.325354       1.687172
                                                        12.268174       0.000000
                          1       7    5fy2z             0.060000       0.000150
                                                         0.166384       0.028275
                                                         0.634073       0.734031
                                                         2.325354       3.772631
                                                        12.268174       0.000000
                          1       7    5fyz2             0.060000       0.000150
                                                         0.166384       0.028275
                                                         0.634073       0.734031
                                                         2.325354       3.772631
                                                        12.268174       0.000000
                          1       7    5fz3              0.060000       0.000067
                                                         0.166384       0.012645
                                                         0.634073       0.328269
                                                         2.325354       1.687172
                                                        12.268174       0.000000

                          2       1    1s                0.191012      -0.002582
                                                         0.666629       0.012902
                                                         4.403487      -0.858326
                                                        14.651380      -2.749170
                                                        57.692026      -2.958222
                                                       257.997554      -1.897300
                                                      1713.054433      -1.166486

                          2       2    2s                0.191012       0.079194
                                                         0.666629       0.351708
                                                         4.403487       0.009155
                                                        14.651380       0.000424
                                                        57.692026       0.772862
                                                       257.997554      -0.458166
                                                      1713.054433       0.520658

                          2       3    3s                0.191012       0.300064
                                                         0.666629      -0.436823
                                                         4.403487      -0.072962
                                                        14.651380      -0.095292
                                                        57.692026      -1.262420
                                                       257.997554       0.741400
                                                      1713.054433      -0.270364

     RI Auxiliary Basis Set                                    aug-cc-pV5Z-RIFIT

       Number of orbital shell sets:                                          46
       Number of orbital shells:                                              46
       Number of primitive Cartesian functions:                               46
       Number of Cartesian basis functions:                                  371
       Number of spherical basis functions:                                  242
       Norm type:                                                              2

       Normalised Cartesian orbitals:

                        Set   Shell   Orbital            Exponent    Coefficient

                          1       1    1s                0.085000       0.112195

                          2       1    1px               0.110000       0.090299
                          2       1    1py               0.110000       0.090299
                          2       1    1pz               0.110000       0.090299

                          3       1    1dx2              0.110000       0.034582
                          3       1    1dxy              0.110000       0.059897
                          3       1    1dxz              0.110000       0.059897
                          3       1    1dy2              0.110000       0.034582
                          3       1    1dyz              0.110000       0.059897
                          3       1    1dz2              0.110000       0.034582

                          4       1    1s                0.175888       0.193570

                          5       1    1fx3              0.200000       0.039380
                          5       1    1fx2y             0.200000       0.088056
                          5       1    1fx2z             0.200000       0.088056
                          5       1    1fxy2             0.200000       0.088056
                          5       1    1fxyz             0.200000       0.152517
                          5       1    1fxz2             0.200000       0.088056
                          5       1    1fy3              0.200000       0.039380
                          5       1    1fy2z             0.200000       0.088056
                          5       1    1fyz2             0.200000       0.088056
                          5       1    1fz3              0.200000       0.039380

                          6       1    1dx2              0.281938       0.179547
                          6       1    1dxy              0.281938       0.310985
                          6       1    1dxz              0.281938       0.310985
                          6       1    1dy2              0.281938       0.179547
                          6       1    1dyz              0.281938       0.310985
                          6       1    1dz2              0.281938       0.179547

                          7       1    1px               0.311991       0.332367
                          7       1    1py               0.311991       0.332367
                          7       1    1pz               0.311991       0.332367

                          8       1    1gx4              0.347391       0.060770
                          8       1    1gx3y             0.347391       0.160781
                          8       1    1gx3z             0.347391       0.160781
                          8       1    1gx2y2            0.347391       0.207568
                          8       1    1gx2yz            0.347391       0.359518
                          8       1    1gx2z2            0.347391       0.207568
                          8       1    1gxy3             0.347391       0.160781
                          8       1    1gxy2z            0.347391       0.359518
                          8       1    1gxyz2            0.347391       0.359518
                          8       1    1gxz3             0.347391       0.160781
                          8       1    1gy4              0.347391       0.060770
                          8       1    1gy3z             0.347391       0.160781
                          8       1    1gy2z2            0.347391       0.207568
                          8       1    1gyz3             0.347391       0.160781
                          8       1    1gz4              0.347391       0.060770

                          9       1    1s                0.378879       0.344180

                         10       1    1fx3              0.470440       0.269829
                         10       1    1fx2y             0.470440       0.603356
                         10       1    1fx2z             0.470440       0.603356
                         10       1    1fxy2             0.470440       0.603356
                         10       1    1fxyz             0.470440       1.045044
                         10       1    1fxz2             0.470440       0.603356
                         10       1    1fy3              0.470440       0.269829
                         10       1    1fy2z             0.470440       0.603356
                         10       1    1fyz2             0.470440       0.603356
                         10       1    1fz3              0.470440       0.269829

                         11       1    1px               0.519429       0.628562
                         11       1    1py               0.519429       0.628562
                         11       1    1pz               0.519429       0.628562

                         12       1    1dx2              0.568580       0.612766
                         12       1    1dxy              0.568580       1.061342
                         12       1    1dxz              0.568580       1.061342
                         12       1    1dy2              0.568580       0.612766
                         12       1    1dyz              0.568580       1.061342
                         12       1    1dz2              0.568580       0.612766

                         13       1    1hx5              0.649339       0.182338
                         13       1    1hx4y             0.649339       0.547013
                         13       1    1hx4z             0.649339       0.547013
                         13       1    1hx3y2            0.649339       0.835576
                         13       1    1hx3yz            0.649339       1.447261
                         13       1    1hx3z2            0.649339       0.835576
                         13       1    1hx2y3            0.649339       0.835576
                         13       1    1hx2y2z           0.649339       1.868406
                         13       1    1hx2yz2           0.649339       1.868406
                         13       1    1hx2z3            0.649339       0.835576
                         13       1    1hxy4             0.649339       0.547013
                         13       1    1hxy3z            0.649339       1.447261
                         13       1    1hxy2z2           0.649339       1.868406
                         13       1    1hxyz3            0.649339       1.447261
                         13       1    1hxz4             0.649339       0.547013
                         13       1    1hy5              0.649339       0.182338
                         13       1    1hy4z             0.649339       0.547013
                         13       1    1hy3z2            0.649339       0.835576
                         13       1    1hy2z3            0.649339       0.835576
                         13       1    1hyz4             0.649339       0.547013
                         13       1    1hz5              0.649339       0.182338

                         14       1    1s                0.758637       0.579343

                         15       1    1gx4              0.844875       0.700027
                         15       1    1gx3y             0.844875       1.852097
                         15       1    1gx3z             0.844875       1.852097
                         15       1    1gx2y2            0.844875       2.391047
                         15       1    1gx2yz            0.844875       4.141415
                         15       1    1gx2z2            0.844875       2.391047
                         15       1    1gxy3             0.844875       1.852097
                         15       1    1gxy2z            0.844875       4.141415
                         15       1    1gxyz2            0.844875       4.141415
                         15       1    1gxz3             0.844875       1.852097
                         15       1    1gy4              0.844875       0.700027
                         15       1    1gy3z             0.844875       1.852097
                         15       1    1gy2z2            0.844875       2.391047
                         15       1    1gyz3             0.844875       1.852097
                         15       1    1gz4              0.844875       0.700027

                         16       1    1fx3              0.895075       1.147197
                         16       1    1fx2y             0.895075       2.565211
                         16       1    1fx2z             0.895075       2.565211
                         16       1    1fxy2             0.895075       2.565211
                         16       1    1fxyz             0.895075       4.443076
                         16       1    1fxz2             0.895075       2.565211
                         16       1    1fy3              0.895075       1.147197
                         16       1    1fy2z             0.895075       2.565211
                         16       1    1fyz2             0.895075       2.565211
                         16       1    1fz3              0.895075       1.147197

                         17       1    1px               0.990652       1.408775
                         17       1    1py               0.990652       1.408775
                         17       1    1pz               0.990652       1.408775

                         18       1    1dx2              1.105370       1.961317
                         18       1    1dxy              1.105370       3.397101
                         18       1    1dxz              1.105370       3.397101
                         18       1    1dy2              1.105370       1.961317
                         18       1    1dyz              1.105370       3.397101
                         18       1    1dz2              1.105370       1.961317

                         19       1    1ix6              1.108860       0.659122
                         19       1    1ix5y             1.108860       2.186059
                         19       1    1ix5z             1.108860       2.186059
                         19       1    1ix4y2            1.108860       3.786365
                         19       1    1ix4yz            1.108860       6.558177
                         19       1    1ix4z2            1.108860       3.786365
                         19       1    1ix3y3            1.108860       4.480088
                         19       1    1ix3y2z           1.108860      10.017780
                         19       1    1ix3yz2           1.108860      10.017780
                         19       1    1ix3z3            1.108860       4.480088
                         19       1    1ix2y4            1.108860       3.786365
                         19       1    1ix2y3z           1.108860      10.017780
                         19       1    1ix2y2z2          1.108860      12.932899
                         19       1    1ix2yz3           1.108860      10.017780
                         19       1    1ix2z4            1.108860       3.786365
                         19       1    1ixy5             1.108860       2.186059
                         19       1    1ixy4z            1.108860       6.558177
                         19       1    1ixy3z2           1.108860      10.017780
                         19       1    1ixy2z3           1.108860      10.017780
                         19       1    1ixyz4            1.108860       6.558177
                         19       1    1ixz5             1.108860       2.186059
                         19       1    1iy6              1.108860       0.659122
                         19       1    1iy5z             1.108860       2.186059
                         19       1    1iy4z2            1.108860       3.786365
                         19       1    1iy3z3            1.108860       4.480088
                         19       1    1iy2z4            1.108860       3.786365
                         19       1    1iyz5             1.108860       2.186059
                         19       1    1iz6              1.108860       0.659122

                         20       1    1s                1.312410       0.873901

                         21       1    1hx5              1.319300       1.825832
                         21       1    1hx4y             1.319300       5.477495
                         21       1    1hx4z             1.319300       5.477495
                         21       1    1hx3y2            1.319300       8.367012
                         21       1    1hx3yz            1.319300      14.492090
                         21       1    1hx3z2            1.319300       8.367012
                         21       1    1hx2y3            1.319300       8.367012
                         21       1    1hx2y2z           1.319300      18.709208
                         21       1    1hx2yz2           1.319300      18.709208
                         21       1    1hx2z3            1.319300       8.367012
                         21       1    1hxy4             1.319300       5.477495
                         21       1    1hxy3z            1.319300      14.492090
                         21       1    1hxy2z2           1.319300      18.709208
                         21       1    1hxyz3            1.319300      14.492090
                         21       1    1hxz4             1.319300       5.477495
                         21       1    1hy5              1.319300       1.825832
                         21       1    1hy4z             1.319300       5.477495
                         21       1    1hy3z2            1.319300       8.367012
                         21       1    1hy2z3            1.319300       8.367012
                         21       1    1hyz4             1.319300       5.477495
                         21       1    1hz5              1.319300       1.825832

                         22       1    1gx4              1.482770       3.287671
                         22       1    1gx3y             1.482770       8.698360
                         22       1    1gx3z             1.482770       8.698360
                         22       1    1gx2y2            1.482770      11.229534
                         22       1    1gx2yz            1.482770      19.450124
                         22       1    1gx2z2            1.482770      11.229534
                         22       1    1gxy3             1.482770       8.698360
                         22       1    1gxy2z            1.482770      19.450124
                         22       1    1gxyz2            1.482770      19.450124
                         22       1    1gxz3             1.482770       8.698360
                         22       1    1gy4              1.482770       3.287671
                         22       1    1gy3z             1.482770       8.698360
                         22       1    1gy2z2            1.482770      11.229534
                         22       1    1gyz3             1.482770       8.698360
                         22       1    1gz4              1.482770       3.287671

                         23       1    1fx3              1.544330       3.913990
                         23       1    1fx2y             1.544330       8.751947
                         23       1    1fx2z             1.544330       8.751947
                         23       1    1fxy2             1.544330       8.751947
                         23       1    1fxyz             1.544330      15.158817
                         23       1    1fxz2             1.544330       8.751947
                         23       1    1fy3              1.544330       3.913990
                         23       1    1fy2z             1.544330       8.751947
                         23       1    1fyz2             1.544330       8.751947
                         23       1    1fz3              1.544330       3.913990

                         24       1    1px               2.075610       3.551177
                         24       1    1py               2.075610       3.551177
                         24       1    1pz               2.075610       3.551177

                         25       1    1s                2.248340       1.308599

                         26       1    1dx2              2.262180       6.868027
                         26       1    1dxy              2.262180      11.895771
                         26       1    1dxz              2.262180      11.895771
                         26       1    1dy2              2.262180       6.868027
                         26       1    1dyz              2.262180      11.895771
                         26       1    1dz2              2.262180       6.868027

                         27       1    1hx5              2.294020      11.022626
                         27       1    1hx4y             2.294020      33.067878
                         27       1    1hx4z             2.294020      33.067878
                         27       1    1hx3y2            2.294020      50.512017
                         27       1    1hx3yz            2.294020      87.489380
                         27       1    1hx3z2            2.294020      50.512017
                         27       1    1hx2y3            2.294020      50.512017
                         27       1    1hx2y2z           2.294020     112.948304
                         27       1    1hx2yz2           2.294020     112.948304
                         27       1    1hx2z3            2.294020      50.512017
                         27       1    1hxy4             2.294020      33.067878
                         27       1    1hxy3z            2.294020      87.489380
                         27       1    1hxy2z2           2.294020     112.948304
                         27       1    1hxyz3            2.294020      87.489380
                         27       1    1hxz4             2.294020      33.067878
                         27       1    1hy5              2.294020      11.022626
                         27       1    1hy4z             2.294020      33.067878
                         27       1    1hy3z2            2.294020      50.512017
                         27       1    1hy2z3            2.294020      50.512017
                         27       1    1hyz4             2.294020      33.067878
                         27       1    1hz5              2.294020      11.022626

                         28       1    1ix6              2.487090      13.630788
                         28       1    1ix5y             2.487090      45.208208
                         28       1    1ix5z             2.487090      45.208208
                         28       1    1ix4y2            2.487090      78.302913
                         28       1    1ix4yz            2.487090     135.624624
                         28       1    1ix4z2            2.487090      78.302913
                         28       1    1ix3y3            2.487090      92.649256
                         28       1    1ix3y2z           2.487090     207.170035
                         28       1    1ix3yz2           2.487090     207.170035
                         28       1    1ix3z3            2.487090      92.649256
                         28       1    1ix2y4            2.487090      78.302913
                         28       1    1ix2y3z           2.487090     207.170035
                         28       1    1ix2y2z2          2.487090     267.455365
                         28       1    1ix2yz3           2.487090     207.170035
                         28       1    1ix2z4            2.487090      78.302913
                         28       1    1ixy5             2.487090      45.208208
                         28       1    1ixy4z            2.487090     135.624624
                         28       1    1ixy3z2           2.487090     207.170035
                         28       1    1ixy2z3           2.487090     207.170035
                         28       1    1ixyz4            2.487090     135.624624
                         28       1    1ixz5             2.487090      45.208208
                         28       1    1iy6              2.487090      13.630788
                         28       1    1iy5z             2.487090      45.208208
                         28       1    1iy4z2            2.487090      78.302913
                         28       1    1iy3z3            2.487090      92.649256
                         28       1    1iy2z4            2.487090      78.302913
                         28       1    1iyz5             2.487090      45.208208
                         28       1    1iz6              2.487090      13.630788

                         29       1    1fx3              2.818460      15.152391
                         29       1    1fx2y             2.818460      33.881776
                         29       1    1fx2z             2.818460      33.881776
                         29       1    1fxy2             2.818460      33.881776
                         29       1    1fxyz             2.818460      58.684958
                         29       1    1fxz2             2.818460      33.881776
                         29       1    1fy3              2.818460      15.152391
                         29       1    1fy2z             2.818460      33.881776
                         29       1    1fyz2             2.818460      33.881776
                         29       1    1fz3              2.818460      15.152391

                         30       1    1gx4              3.053470      23.967238
                         30       1    1gx3y             3.053470      63.411351
                         30       1    1gx3z             3.053470      63.411351
                         30       1    1gx2y2            3.053470      81.863702
                         30       1    1gx2yz            3.053470     141.792090
                         30       1    1gx2z2            3.053470      81.863702
                         30       1    1gxy3             3.053470      63.411351
                         30       1    1gxy2z            3.053470     141.792090
                         30       1    1gxyz2            3.053470     141.792090
                         30       1    1gxz3             3.053470      63.411351
                         30       1    1gy4              3.053470      23.967238
                         30       1    1gy3z             3.053470      63.411351
                         30       1    1gy2z2            3.053470      81.863702
                         30       1    1gyz3             3.053470      63.411351
                         30       1    1gz4              3.053470      23.967238

                         31       1    1dx2              3.550630      15.116246
                         31       1    1dxy              3.550630      26.182105
                         31       1    1dxz              3.550630      26.182105
                         31       1    1dy2              3.550630      15.116246
                         31       1    1dyz              3.550630      26.182105
                         31       1    1dz2              3.550630      15.116246

                         32       1    1px               3.761240       7.466274
                         32       1    1py               3.761240       7.466274
                         32       1    1pz               3.761240       7.466274

                         33       1    1s                3.809660       1.943456

                         34       1    1hx5              3.904570      62.080772
                         34       1    1hx4y             3.904570     186.242316
                         34       1    1hx4z             3.904570     186.242316
                         34       1    1hx3y2            3.904570     284.489837
                         34       1    1hx3yz            3.904570     492.750852
                         34       1    1hx3z2            3.904570     284.489837
                         34       1    1hx2y3            3.904570     284.489837
                         34       1    1hx2y2z           3.904570     636.138614
                         34       1    1hx2yz2           3.904570     636.138614
                         34       1    1hx2z3            3.904570     284.489837
                         34       1    1hxy4             3.904570     186.242316
                         34       1    1hxy3z            3.904570     492.750852
                         34       1    1hxy2z2           3.904570     636.138614
                         34       1    1hxyz3            3.904570     492.750852
                         34       1    1hxz4             3.904570     186.242316
                         34       1    1hy5              3.904570      62.080772
                         34       1    1hy4z             3.904570     186.242316
                         34       1    1hy3z2            3.904570     284.489837
                         34       1    1hy2z3            3.904570     284.489837
                         34       1    1hyz4             3.904570     186.242316
                         34       1    1hz5              3.904570      62.080772

                         35       1    1fx3              4.611490      45.877243
                         35       1    1fx2y             4.611490     102.584634
                         35       1    1fx2z             4.611490     102.584634
                         35       1    1fxy2             4.611490     102.584634
                         35       1    1fxyz             4.611490     177.681798
                         35       1    1fxz2             4.611490     102.584634
                         35       1    1fy3              4.611490      45.877243
                         35       1    1fy2z             4.611490     102.584634
                         35       1    1fyz2             4.611490     102.584634
                         35       1    1fz3              4.611490      45.877243

                         36       1    1gx4              5.478920     119.631780
                         36       1    1gx3y             5.478920     316.515938
                         36       1    1gx3z             5.478920     316.515938
                         36       1    1gx2y2            5.478920     408.620318
                         36       1    1gx2yz            5.478920     707.751152
                         36       1    1gx2z2            5.478920     408.620318
                         36       1    1gxy3             5.478920     316.515938
                         36       1    1gxy2z            5.478920     707.751152
                         36       1    1gxyz2            5.478920     707.751152
                         36       1    1gxz3             5.478920     316.515938
                         36       1    1gy4              5.478920     119.631780
                         36       1    1gy3z             5.478920     316.515938
                         36       1    1gy2z2            5.478920     408.620318
                         36       1    1gyz3             5.478920     316.515938
                         36       1    1gz4              5.478920     119.631780

                         37       1    1dx2              5.810520      35.791979
                         37       1    1dxy              5.810520      61.993525
                         37       1    1dxz              5.810520      61.993525
                         37       1    1dy2              5.810520      35.791979
                         37       1    1dyz              5.810520      61.993525
                         37       1    1dz2              5.810520      35.791979

                         38       1    1px               7.480640      17.634515
                         38       1    1py               7.480640      17.634515
                         38       1    1pz               7.480640      17.634515

                         39       1    1s                8.569100       3.569534

                         40       1    1fx3             10.195600     273.453335
                         40       1    1fx2y            10.195600     611.460245
                         40       1    1fx2z            10.195600     611.460245
                         40       1    1fxy2            10.195600     611.460245
                         40       1    1fxyz            10.195600    1059.080212
                         40       1    1fxz2            10.195600     611.460245
                         40       1    1fy3             10.195600     273.453335
                         40       1    1fy2z            10.195600     611.460245
                         40       1    1fyz2            10.195600     611.460245
                         40       1    1fz3             10.195600     273.453335

                         41       1    1dx2             17.120900     237.181597
                         41       1    1dxy             17.120900     410.810577
                         41       1    1dxz             17.120900     410.810577
                         41       1    1dy2             17.120900     237.181597
                         41       1    1dyz             17.120900     410.810577
                         41       1    1dz2             17.120900     237.181597

                         42       1    1s               18.515300       6.361480

                         43       1    1px              18.749800      55.614225
                         43       1    1py              18.749800      55.614225
                         43       1    1pz              18.749800      55.614225

                         44       1    1px              66.987000     273.167010
                         44       1    1py              66.987000     273.167010
                         44       1    1pz              66.987000     273.167010

                         45       1    1s               72.692500      17.743010

                         46       1    1s              330.814000      55.283815

       Atomic covalent radius [Angstrom]:                                  0.750

       Atomic van der Waals radius [Angstrom]:                             1.550

     The atoms of this atomic kind are PAW atoms (GAPW):
       Hard Gaussian function radius:                                      1.512
       Rho0 radius:                                                        1.512
       Maximum GTO radius used for PAW projector construction:            24.566

     GAPW Soft Basis Set                                 aug-DZVP-MOLOPT-ae_soft

       Number of orbital shell sets:                                           2
       Number of orbital shells:                                              10
       Number of primitive Cartesian functions:                                6
       Number of Cartesian basis functions:                                   35
       Number of spherical basis functions:                                   30
       Norm type:                                                              2

       Normalised Cartesian orbitals:

                        Set   Shell   Orbital            Exponent    Coefficient

                          1       1    2s                0.060000      -0.096639
                                                         0.166384       0.037538
                                                         0.634073      -0.055669
                                                         2.325354       0.000000

                          1       2    3px               0.060000       0.000000
                                                         0.166384      -0.031930
                                                         0.634073      -0.492962
                                                         2.325354      -1.380142
                          1       2    3py               0.060000       0.000000
                                                         0.166384      -0.031930
                                                         0.634073      -0.492962
                                                         2.325354      -1.380142
                          1       2    3pz               0.060000       0.000000
                                                         0.166384      -0.031930
                                                         0.634073      -0.492962
                                                         2.325354      -1.380142

                          1       3    4px               0.060000       0.000000
                                                         0.166384       0.169694
                                                         0.634073      -0.220766
                                                         2.325354      -0.809234
                          1       3    4py               0.060000       0.000000
                                                         0.166384       0.169694
                                                         0.634073      -0.220766
                                                         2.325354      -0.809234
                          1       3    4pz               0.060000       0.000000
                                                         0.166384       0.169694
                                                         0.634073      -0.220766
                                                         2.325354      -0.809234

                          1       4    5px               0.060000       0.028594
                                                         0.166384       0.063224
                                                         0.634073      -0.046183
                                                         2.325354       0.000000
                          1       4    5py               0.060000       0.028594
                                                         0.166384       0.063224
                                                         0.634073      -0.046183
                                                         2.325354       0.000000
                          1       4    5pz               0.060000       0.028594
                                                         0.166384       0.063224
                                                         0.634073      -0.046183
                                                         2.325354       0.000000

                          1       5    4dx2              0.060000       0.000000
                                                         0.166384       0.019402
                                                         0.634073       0.555487
                                                         2.325354       1.255926
                          1       5    4dxy              0.060000       0.000000
                                                         0.166384       0.033606
                                                         0.634073       0.962132
                                                         2.325354       2.175327
                          1       5    4dxz              0.060000       0.000000
                                                         0.166384       0.033606
                                                         0.634073       0.962132
                                                         2.325354       2.175327
                          1       5    4dy2              0.060000       0.000000
                                                         0.166384       0.019402
                                                         0.634073       0.555487
                                                         2.325354       1.255926
                          1       5    4dyz              0.060000       0.000000
                                                         0.166384       0.033606
                                                         0.634073       0.962132
                                                         2.325354       2.175327
                          1       5    4dz2              0.060000       0.000000
                                                         0.166384       0.019402
                                                         0.634073       0.555487
                                                         2.325354       1.255926

                          1       6    5dx2              0.060000      -0.008089
                                                         0.166384      -0.027907
                                                         0.634073      -0.057221
                                                         2.325354       0.000000
                          1       6    5dxy              0.060000      -0.014011
                                                         0.166384      -0.048336
                                                         0.634073      -0.099109
                                                         2.325354       0.000000
                          1       6    5dxz              0.060000      -0.014011
                                                         0.166384      -0.048336
                                                         0.634073      -0.099109
                                                         2.325354       0.000000
                          1       6    5dy2              0.060000      -0.008089
                                                         0.166384      -0.027907
                                                         0.634073      -0.057221
                                                         2.325354       0.000000
                          1       6    5dyz              0.060000      -0.014011
                                                         0.166384      -0.048336
                                                         0.634073      -0.099109
                                                         2.325354       0.000000
                          1       6    5dz2              0.060000      -0.008089
                                                         0.166384      -0.027907
                                                         0.634073      -0.057221
                                                         2.325354       0.000000

                          1       7    5fx3              0.060000       0.000067
                                                         0.166384       0.012645
                                                         0.634073       0.328269
                                                         2.325354       1.687172
                          1       7    5fx2y             0.060000       0.000150
                                                         0.166384       0.028275
                                                         0.634073       0.734031
                                                         2.325354       3.772631
                          1       7    5fx2z             0.060000       0.000150
                                                         0.166384       0.028275
                                                         0.634073       0.734031
                                                         2.325354       3.772631
                          1       7    5fxy2             0.060000       0.000150
                                                         0.166384       0.028275
                                                         0.634073       0.734031
                                                         2.325354       3.772631
                          1       7    5fxyz             0.060000       0.000260
                                                         0.166384       0.048973
                                                         0.634073       1.271379
                                                         2.325354       6.534389
                          1       7    5fxz2             0.060000       0.000150
                                                         0.166384       0.028275
                                                         0.634073       0.734031
                                                         2.325354       3.772631
                          1       7    5fy3              0.060000       0.000067
                                                         0.166384       0.012645
                                                         0.634073       0.328269
                                                         2.325354       1.687172
                          1       7    5fy2z             0.060000       0.000150
                                                         0.166384       0.028275
                                                         0.634073       0.734031
                                                         2.325354       3.772631
                          1       7    5fyz2             0.060000       0.000150
                                                         0.166384       0.028275
                                                         0.634073       0.734031
                                                         2.325354       3.772631
                          1       7    5fz3              0.060000       0.000067
                                                         0.166384       0.012645
                                                         0.634073       0.328269
                                                         2.325354       1.687172

                          2       1    1s                0.191012      -0.002582
                                                         0.666629       0.012902

                          2       2    2s                0.191012       0.079194
                                                         0.666629       0.351708

                          2       3    3s                0.191012       0.300064
                                                         0.666629      -0.436823

     AE Potential information for                                            ALL

       Description:                                       All-electron potential
                                          Krack, Parrinello, PCCP 2, 2105 (2000)

       Gaussian exponent of the core charge distribution:               5.979100
       Electronic configuration (s p d ...):                           4   3   0

  3. Atomic kind: H                                     Number of atoms:       2

     Orbital Basis Set                                        aug-DZVP-MOLOPT-ae

       Number of orbital shell sets:                                           1
       Number of orbital shells:                                               5
       Number of primitive Cartesian functions:                                5
       Number of Cartesian basis functions:                                    9
       Number of spherical basis functions:                                    9
       Norm type:                                                              2

       Normalised Cartesian orbitals:

                        Set   Shell   Orbital            Exponent    Coefficient

                          1       1    2s                0.035000       0.000000
                                                         0.111920       0.009149
                                                         0.374948       0.205449
                                                         1.446686       0.373852
                                                        12.248855       0.310040

                          1       2    3s                0.035000       0.000000
                                                         0.111920       0.143650
                                                         0.374948       0.007287
                                                         1.446686      -0.188851
                                                        12.248855      -0.144753

                          1       3    4s                0.035000       0.090463
                                                         0.111920      -0.203934
                                                         0.374948      -0.000376
                                                         1.446686      -0.000051
                                                        12.248855       0.000000

                          1       4    3px               0.035000       0.000000
                                                         0.111920       0.007225
                                                         0.374948       0.280770
                                                         1.446686       0.896497
                                                        12.248855      -0.764411
                          1       4    3py               0.035000       0.000000
                                                         0.111920       0.007225
                                                         0.374948       0.280770
                                                         1.446686       0.896497
                                                        12.248855      -0.764411
                          1       4    3pz               0.035000       0.000000
                                                         0.111920       0.007225
                                                         0.374948       0.280770
                                                         1.446686       0.896497
                                                        12.248855      -0.764411

                          1       5    4px               0.035000       0.011331
                                                         0.111920       0.048737
                                                         0.374948       0.028490
                                                         1.446686       0.035587
                                                        12.248855       0.000000
                          1       5    4py               0.035000       0.011331
                                                         0.111920       0.048737
                                                         0.374948       0.028490
                                                         1.446686       0.035587
                                                        12.248855       0.000000
                          1       5    4pz               0.035000       0.011331
                                                         0.111920       0.048737
                                                         0.374948       0.028490
                                                         1.446686       0.035587
                                                        12.248855       0.000000

     RI Auxiliary Basis Set                                    aug-cc-pV5Z-RIFIT

       Number of orbital shell sets:                                          27
       Number of orbital shells:                                              27
       Number of primitive Cartesian functions:                               27
       Number of Cartesian basis functions:                                  182
       Number of spherical basis functions:                                  127
       Norm type:                                                              2

       Normalised Cartesian orbitals:

                        Set   Shell   Orbital            Exponent    Coefficient

                          1       1    1s                0.110911       0.136975

                          2       1    1px               0.196067       0.185971
                          2       1    1py               0.196067       0.185971
                          2       1    1pz               0.196067       0.185971

                          3       1    1dx2              0.233601       0.129193
                          3       1    1dxy              0.233601       0.223769
                          3       1    1dxz              0.233601       0.223769
                          3       1    1dy2              0.233601       0.129193
                          3       1    1dyz              0.233601       0.223769
                          3       1    1dz2              0.233601       0.129193

                          4       1    1fx3              0.236155       0.057233
                          4       1    1fx2y             0.236155       0.127977
                          4       1    1fx2z             0.236155       0.127977
                          4       1    1fxy2             0.236155       0.127977
                          4       1    1fxyz             0.236155       0.221663
                          4       1    1fxz2             0.236155       0.127977
                          4       1    1fy3              0.236155       0.057233
                          4       1    1fy2z             0.236155       0.127977
                          4       1    1fyz2             0.236155       0.127977
                          4       1    1fz3              0.236155       0.057233

                          5       1    1s                0.236911       0.242019

                          6       1    1px               0.347892       0.380843
                          6       1    1py               0.347892       0.380843
                          6       1    1pz               0.347892       0.380843

                          7       1    1s                0.506054       0.427620

                          8       1    1fx3              0.572873       0.420326
                          8       1    1fx2y             0.572873       0.939876
                          8       1    1fx2z             0.572873       0.939876
                          8       1    1fxy2             0.572873       0.939876
                          8       1    1fxyz             0.572873       1.627914
                          8       1    1fxz2             0.572873       0.939876
                          8       1    1fy3              0.572873       0.420326
                          8       1    1fy2z             0.572873       0.939876
                          8       1    1fyz2             0.572873       0.939876
                          8       1    1fz3              0.572873       0.420326

                          9       1    1dx2              0.625366       0.723843
                          9       1    1dxy              0.625366       1.253733
                          9       1    1dxz              0.625366       1.253733
                          9       1    1dy2              0.625366       0.723843
                          9       1    1dyz              0.625366       1.253733
                          9       1    1dz2              0.625366       0.723843

                         10       1    1gx4              0.796320       0.594876
                         10       1    1gx3y             0.796320       1.573894
                         10       1    1gx3z             0.796320       1.573894
                         10       1    1gx2y2            0.796320       2.031888
                         10       1    1gx2yz            0.796320       3.519333
                         10       1    1gx2z2            0.796320       2.031888
                         10       1    1gxy3             0.796320       1.573894
                         10       1    1gxy2z            0.796320       3.519333
                         10       1    1gxyz2            0.796320       3.519333
                         10       1    1gxz3             0.796320       1.573894
                         10       1    1gy4              0.796320       0.594876
                         10       1    1gy3z             0.796320       1.573894
                         10       1    1gy2z2            0.796320       2.031888
                         10       1    1gyz3             0.796320       1.573894
                         10       1    1gz4              0.796320       0.594876

                         11       1    1px               0.805545       1.087808
                         11       1    1py               0.805545       1.087808
                         11       1    1pz               0.805545       1.087808

                         12       1    1dx2              0.979237       1.586584
                         12       1    1dxy              0.979237       2.748044
                         12       1    1dxz              0.979237       2.748044
                         12       1    1dy2              0.979237       1.586584
                         12       1    1dyz              0.979237       2.748044
                         12       1    1dz2              0.979237       1.586584

                         13       1    1s                0.994218       0.709613

                         14       1    1hx5              1.034980       0.829608
                         14       1    1hx4y             1.034980       2.488825
                         14       1    1hx4z             1.034980       2.488825
                         14       1    1hx3y2            1.034980       3.801742
                         14       1    1hx3yz            1.034980       6.584811
                         14       1    1hx3z2            1.034980       3.801742
                         14       1    1hx2y3            1.034980       3.801742
                         14       1    1hx2y2z           1.034980       8.500954
                         14       1    1hx2yz2           1.034980       8.500954
                         14       1    1hx2z3            1.034980       3.801742
                         14       1    1hxy4             1.034980       2.488825
                         14       1    1hxy3z            1.034980       6.584811
                         14       1    1hxy2z2           1.034980       8.500954
                         14       1    1hxyz3            1.034980       6.584811
                         14       1    1hxz4             1.034980       2.488825
                         14       1    1hy5              1.034980       0.829608
                         14       1    1hy4z             1.034980       2.488825
                         14       1    1hy3z2            1.034980       3.801742
                         14       1    1hy2z3            1.034980       3.801742
                         14       1    1hyz4             1.034980       2.488825
                         14       1    1hz5              1.034980       0.829608

                         15       1    1fx3              1.198110       2.210915
                         15       1    1fx2y             1.198110       4.943756
                         15       1    1fx2z             1.198110       4.943756
                         15       1    1fxy2             1.198110       4.943756
                         15       1    1fxyz             1.198110       8.562836
                         15       1    1fxz2             1.198110       4.943756
                         15       1    1fy3              1.198110       2.210915
                         15       1    1fy2z             1.198110       4.943756
                         15       1    1fyz2             1.198110       4.943756
                         15       1    1fz3              1.198110       2.210915

                         16       1    1gx4              1.231920       1.974865
                         16       1    1gx3y             1.231920       5.225001
                         16       1    1gx3z             1.231920       5.225001
                         16       1    1gx2y2            1.231920       6.745447
                         16       1    1gx2yz            1.231920      11.683456
                         16       1    1gx2z2            1.231920       6.745447
                         16       1    1gxy3             1.231920       5.225001
                         16       1    1gxy2z            1.231920      11.683456
                         16       1    1gxyz2            1.231920      11.683456
                         16       1    1gxz3             1.231920       5.225001
                         16       1    1gy4              1.231920       1.974865
                         16       1    1gy3z             1.231920       5.225001
                         16       1    1gy2z2            1.231920       6.745447
                         16       1    1gyz3             1.231920       5.225001
                         16       1    1gz4              1.231920       1.974865

                         17       1    1px               1.248660       1.881462
                         17       1    1py               1.248660       1.881462
                         17       1    1pz               1.248660       1.881462

                         18       1    1dx2              1.710630       4.211459
                         18       1    1dxy              1.710630       7.294461
                         18       1    1dxz              1.710630       7.294461
                         18       1    1dy2              1.710630       4.211459
                         18       1    1dyz              1.710630       7.294461
                         18       1    1dz2              1.710630       4.211459

                         19       1    1s                1.775100       1.096042

                         20       1    1px               2.052170       3.501118
                         20       1    1py               2.052170       3.501118
                         20       1    1pz               2.052170       3.501118

                         21       1    1gx4              2.987800      22.576266
                         21       1    1gx3y             2.987800      59.731185
                         21       1    1gx3z             2.987800      59.731185
                         21       1    1gx2y2            2.987800      77.112629
                         21       1    1gx2yz            2.987800     133.562991
                         21       1    1gx2z2            2.987800      77.112629
                         21       1    1gxy3             2.987800      59.731185
                         21       1    1gxy2z            2.987800     133.562991
                         21       1    1gxyz2            2.987800     133.562991
                         21       1    1gxz3             2.987800      59.731185
                         21       1    1gy4              2.987800      22.576266
                         21       1    1gy3z             2.987800      59.731185
                         21       1    1gy2z2            2.987800      77.112629
                         21       1    1gyz3             2.987800      59.731185
                         21       1    1gz4              2.987800      22.576266

                         22       1    1fx3              3.101510      18.792914
                         22       1    1fx2y             3.101510      42.022232
                         22       1    1fx2z             3.101510      42.022232
                         22       1    1fxy2             3.101510      42.022232
                         22       1    1fxyz             3.101510      72.784641
                         22       1    1fxz2             3.101510      42.022232
                         22       1    1fy3              3.101510      18.792914
                         22       1    1fy2z             3.101510      42.022232
                         22       1    1fyz2             3.101510      42.022232
                         22       1    1fz3              3.101510      18.792914

                         23       1    1hx5              3.247390      34.106027
                         23       1    1hx4y             3.247390     102.318080
                         23       1    1hx4z             3.247390     102.318080
                         23       1    1hx3y2            3.247390     156.293448
                         23       1    1hx3yz            3.247390     270.708193
                         23       1    1hx3z2            3.247390     156.293448
                         23       1    1hx2y3            3.247390     156.293448
                         23       1    1hx2y2z           3.247390     349.482775
                         23       1    1hx2yz2           3.247390     349.482775
                         23       1    1hx2z3            3.247390     156.293448
                         23       1    1hxy4             3.247390     102.318080
                         23       1    1hxy3z            3.247390     270.708193
                         23       1    1hxy2z2           3.247390     349.482775
                         23       1    1hxyz3            3.247390     270.708193
                         23       1    1hxz4             3.247390     102.318080
                         23       1    1hy5              3.247390      34.106027
                         23       1    1hy4z             3.247390     102.318080
                         23       1    1hy3z2            3.247390     156.293448
                         23       1    1hy2z3            3.247390     156.293448
                         23       1    1hyz4             3.247390     102.318080
                         23       1    1hz5              3.247390      34.106027

                         24       1    1dx2              3.858160      17.481346
                         24       1    1dxy              3.858160      30.278579
                         24       1    1dxz              3.858160      30.278579
                         24       1    1dy2              3.858160      17.481346
                         24       1    1dyz              3.858160      30.278579
                         24       1    1dz2              3.858160      17.481346

                         25       1    1s                4.922970       2.355486

                         26       1    1px               5.974580      13.314483
                         26       1    1py               5.974580      13.314483
                         26       1    1pz               5.974580      13.314483

                         27       1    1s               23.321500       7.563581

       Atomic covalent radius [Angstrom]:                                  0.320

       Atomic van der Waals radius [Angstrom]:                             1.090

     The atoms of this atomic kind are PAW atoms (GAPW):
       Hard Gaussian function radius:                                      1.200
       Rho0 radius:                                                        1.200
       Maximum GTO radius used for PAW projector construction:            24.566

     GAPW Soft Basis Set                                 aug-DZVP-MOLOPT-ae_soft

       Number of orbital shell sets:                                           1
       Number of orbital shells:                                               5
       Number of primitive Cartesian functions:                                4
       Number of Cartesian basis functions:                                    9
       Number of spherical basis functions:                                    9
       Norm type:                                                              2

       Normalised Cartesian orbitals:

                        Set   Shell   Orbital            Exponent    Coefficient

                          1       1    2s                0.035000       0.000000
                                                         0.111920       0.009149
                                                         0.374948       0.205449
                                                         1.446686       0.373852

                          1       2    3s                0.035000       0.000000
                                                         0.111920       0.143650
                                                         0.374948       0.007287
                                                         1.446686      -0.188851

                          1       3    4s                0.035000       0.090463
                                                         0.111920      -0.203934
                                                         0.374948      -0.000376
                                                         1.446686      -0.000051

                          1       4    3px               0.035000       0.000000
                                                         0.111920       0.007225
                                                         0.374948       0.280770
                                                         1.446686       0.896497
                          1       4    3py               0.035000       0.000000
                                                         0.111920       0.007225
                                                         0.374948       0.280770
                                                         1.446686       0.896497
                          1       4    3pz               0.035000       0.000000
                                                         0.111920       0.007225
                                                         0.374948       0.280770
                                                         1.446686       0.896497

                          1       5    4px               0.035000       0.011331
                                                         0.111920       0.048737
                                                         0.374948       0.028490
                                                         1.446686       0.035587
                          1       5    4py               0.035000       0.011331
                                                         0.111920       0.048737
                                                         0.374948       0.028490
                                                         1.446686       0.035587
                          1       5    4pz               0.035000       0.011331
                                                         0.111920       0.048737
                                                         0.374948       0.028490
                                                         1.446686       0.035587

     AE Potential information for                                            ALL

       Description:                                       All-electron potential
                                          Krack, Parrinello, PCCP 2, 2105 (2000)

       Gaussian exponent of the core charge distribution:              12.500000
       Electronic configuration (s p d ...):                           1   0   0

  4. Atomic kind: C                                     Number of atoms:       4

     Orbital Basis Set                                        aug-DZVP-MOLOPT-ae

       Number of orbital shell sets:                                           2
       Number of orbital shells:                                              10
       Number of primitive Cartesian functions:                               13
       Number of Cartesian basis functions:                                   35
       Number of spherical basis functions:                                   30
       Norm type:                                                              2

       Normalised Cartesian orbitals:

                        Set   Shell   Orbital            Exponent    Coefficient

                          1       1    2px               0.050000       0.000000
                                                         0.096935       0.005344
                                                         0.300899       0.144116
                                                         0.937529       0.673511
                                                         4.145546       1.425967
                          1       1    2py               0.050000       0.000000
                                                         0.096935       0.005344
                                                         0.300899       0.144116
                                                         0.937529       0.673511
                                                         4.145546       1.425967
                          1       1    2pz               0.050000       0.000000
                                                         0.096935       0.005344
                                                         0.300899       0.144116
                                                         0.937529       0.673511
                                                         4.145546       1.425967

                          1       2    3px               0.050000       0.000000
                                                         0.096935       0.066903
                                                         0.300899       0.082631
                                                         0.937529      -0.414500
                                                         4.145546      -0.833488
                          1       2    3py               0.050000       0.000000
                                                         0.096935       0.066903
                                                         0.300899       0.082631
                                                         0.937529      -0.414500
                                                         4.145546      -0.833488
                          1       2    3pz               0.050000       0.000000
                                                         0.096935       0.066903
                                                         0.300899       0.082631
                                                         0.937529      -0.414500
                                                         4.145546      -0.833488

                          1       3    4px               0.050000       0.052477
                                                         0.096935      -0.149600
                                                         0.300899      -0.031452
                                                         0.937529       0.106528
                                                         4.145546       0.000000
                          1       3    4py               0.050000       0.052477
                                                         0.096935      -0.149600
                                                         0.300899      -0.031452
                                                         0.937529       0.106528
                                                         4.145546       0.000000
                          1       3    4pz               0.050000       0.052477
                                                         0.096935      -0.149600
                                                         0.300899      -0.031452
                                                         0.937529       0.106528
                                                         4.145546       0.000000

                          1       4    3dx2              0.050000       0.000000
                                                         0.096935       0.001258
                                                         0.300899       0.105504
                                                         0.937529       0.830801
                                                         4.145546       0.718979
                          1       4    3dxy              0.050000       0.000000
                                                         0.096935       0.002179
                                                         0.300899       0.182739
                                                         0.937529       1.438990
                                                         4.145546       1.245309
                          1       4    3dxz              0.050000       0.000000
                                                         0.096935       0.002179
                                                         0.300899       0.182739
                                                         0.937529       1.438990
                                                         4.145546       1.245309
                          1       4    3dy2              0.050000       0.000000
                                                         0.096935       0.001258
                                                         0.300899       0.105504
                                                         0.937529       0.830801
                                                         4.145546       0.718979
                          1       4    3dyz              0.050000       0.000000
                                                         0.096935       0.002179
                                                         0.300899       0.182739
                                                         0.937529       1.438990
                                                         4.145546       1.245309
                          1       4    3dz2              0.050000       0.000000
                                                         0.096935       0.001258
                                                         0.300899       0.105504
                                                         0.937529       0.830801
                                                         4.145546       0.718979

                          1       5    4dx2              0.050000      -0.011665
                                                         0.096935       0.057456
                                                         0.300899      -0.258169
                                                         0.937529       0.000000
                                                         4.145546       0.000000
                          1       5    4dxy              0.050000      -0.020204
                                                         0.096935       0.099516
                                                         0.300899      -0.447162
                                                         0.937529       0.000000
                                                         4.145546       0.000000
                          1       5    4dxz              0.050000      -0.020204
                                                         0.096935       0.099516
                                                         0.300899      -0.447162
                                                         0.937529       0.000000
                                                         4.145546       0.000000
                          1       5    4dy2              0.050000      -0.011665
                                                         0.096935       0.057456
                                                         0.300899      -0.258169
                                                         0.937529       0.000000
                                                         4.145546       0.000000
                          1       5    4dyz              0.050000      -0.020204
                                                         0.096935       0.099516
                                                         0.300899      -0.447162
                                                         0.937529       0.000000
                                                         4.145546       0.000000
                          1       5    4dz2              0.050000      -0.011665
                                                         0.096935       0.057456
                                                         0.300899      -0.258169
                                                         0.937529       0.000000
                                                         4.145546       0.000000

                          1       6    4fx3              0.050000      -0.000180
                                                         0.096935       0.008160
                                                         0.300899       0.004002
                                                         0.937529       0.000000
                                                         4.145546       0.000000
                          1       6    4fx2y             0.050000      -0.000402
                                                         0.096935       0.018246
                                                         0.300899       0.008949
                                                         0.937529       0.000000
                                                         4.145546       0.000000
                          1       6    4fx2z             0.050000      -0.000402
                                                         0.096935       0.018246
                                                         0.300899       0.008949
                                                         0.937529       0.000000
                                                         4.145546       0.000000
                          1       6    4fxy2             0.050000      -0.000402
                                                         0.096935       0.018246
                                                         0.300899       0.008949
                                                         0.937529       0.000000
                                                         4.145546       0.000000
                          1       6    4fxyz             0.050000      -0.000696
                                                         0.096935       0.031603
                                                         0.300899       0.015500
                                                         0.937529       0.000000
                                                         4.145546       0.000000
                          1       6    4fxz2             0.050000      -0.000402
                                                         0.096935       0.018246
                                                         0.300899       0.008949
                                                         0.937529       0.000000
                                                         4.145546       0.000000
                          1       6    4fy3              0.050000      -0.000180
                                                         0.096935       0.008160
                                                         0.300899       0.004002
                                                         0.937529       0.000000
                                                         4.145546       0.000000
                          1       6    4fy2z             0.050000      -0.000402
                                                         0.096935       0.018246
                                                         0.300899       0.008949
                                                         0.937529       0.000000
                                                         4.145546       0.000000
                          1       6    4fyz2             0.050000      -0.000402
                                                         0.096935       0.018246
                                                         0.300899       0.008949
                                                         0.937529       0.000000
                                                         4.145546       0.000000
                          1       6    4fz3              0.050000      -0.000180
                                                         0.096935       0.008160
                                                         0.300899       0.004002
                                                         0.937529       0.000000
                                                         4.145546       0.000000

                          2       1    1s                0.060000       0.000000
                                                         0.161278       0.024253
                                                         0.523772      -0.029268
                                                         3.176528       0.666384
                                                        10.501907       2.110671
                                                        40.805234       2.242010
                                                       186.270922       1.801845
                                                      1238.394264      -0.490536

                          2       2    2s                0.060000       0.000000
                                                         0.161278       0.080328
                                                         0.523772       0.279468
                                                         3.176528      -0.079506
                                                        10.501907      -0.033488
                                                        40.805234       0.350132
                                                       186.270922      -0.108171
                                                      1238.394264       0.147138

                          2       3    3s                0.060000       0.000000
                                                         0.161278       0.225687
                                                         0.523772      -0.382710
                                                         3.176528      -0.308205
                                                        10.501907      -0.974990
                                                        40.805234      -2.174132
                                                       186.270922       1.755878
                                                      1238.394264     -12.484315

                          2       4    4s                0.060000      -0.055653
                                                         0.161278      -0.019607
                                                         0.523772       0.500289
                                                         3.176528       0.067234
                                                        10.501907       0.000000
                                                        40.805234       0.000000
                                                       186.270922       0.000000
                                                      1238.394264       0.000000

     RI Auxiliary Basis Set                                    aug-cc-pV5Z-RIFIT

       Number of orbital shell sets:                                          46
       Number of orbital shells:                                              46
       Number of primitive Cartesian functions:                               46
       Number of Cartesian basis functions:                                  371
       Number of spherical basis functions:                                  242
       Norm type:                                                              2

       Normalised Cartesian orbitals:

                        Set   Shell   Orbital            Exponent    Coefficient

                          1       1    1s                0.062545       0.089136

                          2       1    1dx2              0.084789       0.021928
                          2       1    1dxy              0.084789       0.037981
                          2       1    1dxz              0.084789       0.037981
                          2       1    1dy2              0.084789       0.021928
                          2       1    1dyz              0.084789       0.037981
                          2       1    1dz2              0.084789       0.021928

                          3       1    1px               0.090000       0.070266
                          3       1    1py               0.090000       0.070266
                          3       1    1pz               0.090000       0.070266

                          4       1    1s                0.118498       0.143944

                          5       1    1fx3              0.135351       0.016358
                          5       1    1fx2y             0.135351       0.036579
                          5       1    1fx2z             0.135351       0.036579
                          5       1    1fxy2             0.135351       0.036579
                          5       1    1fxyz             0.135351       0.063356
                          5       1    1fxz2             0.135351       0.036579
                          5       1    1fy3              0.135351       0.016358
                          5       1    1fy2z             0.135351       0.036579
                          5       1    1fyz2             0.135351       0.036579
                          5       1    1fz3              0.135351       0.016358

                          6       1    1dx2              0.211749       0.108792
                          6       1    1dxy              0.211749       0.188433
                          6       1    1dxz              0.211749       0.188433
                          6       1    1dy2              0.211749       0.108792
                          6       1    1dyz              0.211749       0.188433
                          6       1    1dz2              0.211749       0.108792

                          7       1    1px               0.223793       0.219406
                          7       1    1py               0.223793       0.219406
                          7       1    1pz               0.223793       0.219406

                          8       1    1gx4              0.241717       0.022415
                          8       1    1gx3y             0.241717       0.059303
                          8       1    1gx3z             0.241717       0.059303
                          8       1    1gx2y2            0.241717       0.076560
                          8       1    1gx2yz            0.241717       0.132606
                          8       1    1gx2z2            0.241717       0.076560
                          8       1    1gxy3             0.241717       0.059303
                          8       1    1gxy2z            0.241717       0.132606
                          8       1    1gxyz2            0.241717       0.132606
                          8       1    1gxz3             0.241717       0.059303
                          8       1    1gy4              0.241717       0.022415
                          8       1    1gy3z             0.241717       0.059303
                          8       1    1gy2z2            0.241717       0.076560
                          8       1    1gyz3             0.241717       0.059303
                          8       1    1gz4              0.241717       0.022415

                          9       1    1s                0.257433       0.257578

                         10       1    1fx3              0.334627       0.125377
                         10       1    1fx2y             0.334627       0.280351
                         10       1    1fx2z             0.334627       0.280351
                         10       1    1fxy2             0.334627       0.280351
                         10       1    1fxyz             0.334627       0.485582
                         10       1    1fxz2             0.334627       0.280351
                         10       1    1fy3              0.334627       0.125377
                         10       1    1fy2z             0.334627       0.280351
                         10       1    1fyz2             0.334627       0.280351
                         10       1    1fz3              0.334627       0.125377

                         11       1    1px               0.353612       0.388686
                         11       1    1py               0.353612       0.388686
                         11       1    1pz               0.353612       0.388686

                         12       1    1dx2              0.413013       0.350224
                         12       1    1dxy              0.413013       0.606606
                         12       1    1dxz              0.413013       0.606606
                         12       1    1dy2              0.413013       0.350224
                         12       1    1dyz              0.413013       0.606606
                         12       1    1dz2              0.413013       0.350224

                         13       1    1hx5              0.475436       0.066205
                         13       1    1hx4y             0.475436       0.198616
                         13       1    1hx4z             0.475436       0.198616
                         13       1    1hx3y2            0.475436       0.303391
                         13       1    1hx3yz            0.475436       0.525489
                         13       1    1hx3z2            0.475436       0.303391
                         13       1    1hx2y3            0.475436       0.303391
                         13       1    1hx2y2z           0.475436       0.678403
                         13       1    1hx2yz2           0.475436       0.678403
                         13       1    1hx2z3            0.475436       0.303391
                         13       1    1hxy4             0.475436       0.198616
                         13       1    1hxy3z            0.475436       0.525489
                         13       1    1hxy2z2           0.475436       0.678403
                         13       1    1hxyz3            0.475436       0.525489
                         13       1    1hxz4             0.475436       0.198616
                         13       1    1hy5              0.475436       0.066205
                         13       1    1hy4z             0.475436       0.198616
                         13       1    1hy3z2            0.475436       0.303391
                         13       1    1hy2z3            0.475436       0.303391
                         13       1    1hyz4             0.475436       0.198616
                         13       1    1hz5              0.475436       0.066205

                         14       1    1s                0.555806       0.458778

                         15       1    1gx4              0.593235       0.264734
                         15       1    1gx3y             0.593235       0.700419
                         15       1    1gx3z             0.593235       0.700419
                         15       1    1gx2y2            0.593235       0.904237
                         15       1    1gx2yz            0.593235       1.566185
                         15       1    1gx2z2            0.593235       0.904237
                         15       1    1gxy3             0.593235       0.700419
                         15       1    1gxy2z            0.593235       1.566185
                         15       1    1gxyz2            0.593235       1.566185
                         15       1    1gxz3             0.593235       0.700419
                         15       1    1gy4              0.593235       0.264734
                         15       1    1gy3z             0.593235       0.700419
                         15       1    1gy2z2            0.593235       0.904237
                         15       1    1gyz3             0.593235       0.700419
                         15       1    1gz4              0.593235       0.264734

                         16       1    1fx3              0.603184       0.472027
                         16       1    1fx2y             0.603184       1.055484
                         16       1    1fx2z             0.603184       1.055484
                         16       1    1fxy2             0.603184       1.055484
                         16       1    1fxyz             0.603184       1.828151
                         16       1    1fxz2             0.603184       1.055484
                         16       1    1fy3              0.603184       0.472027
                         16       1    1fy2z             0.603184       1.055484
                         16       1    1fyz2             0.603184       1.055484
                         16       1    1fz3              0.603184       0.472027

                         17       1    1px               0.705145       0.921060
                         17       1    1py               0.705145       0.921060
                         17       1    1pz               0.705145       0.921060

                         18       1    1dx2              0.759964       1.018116
                         18       1    1dxy              0.759964       1.763429
                         18       1    1dxz              0.759964       1.763429
                         18       1    1dy2              0.759964       1.018116
                         18       1    1dyz              0.759964       1.763429
                         18       1    1dz2              0.759964       1.018116

                         19       1    1ix6              0.833067       0.225542
                         19       1    1ix5y             0.833067       0.748038
                         19       1    1ix5z             0.833067       0.748038
                         19       1    1ix4y2            0.833067       1.295641
                         19       1    1ix4yz            0.833067       2.244115
                         19       1    1ix4z2            0.833067       1.295641
                         19       1    1ix3y3            0.833067       1.533023
                         19       1    1ix3y2z           0.833067       3.427943
                         19       1    1ix3yz2           0.833067       3.427943
                         19       1    1ix3z3            0.833067       1.533023
                         19       1    1ix2y4            0.833067       1.295641
                         19       1    1ix2y3z           0.833067       3.427943
                         19       1    1ix2y2z2          0.833067       4.425455
                         19       1    1ix2yz3           0.833067       3.427943
                         19       1    1ix2z4            0.833067       1.295641
                         19       1    1ixy5             0.833067       0.748038
                         19       1    1ixy4z            0.833067       2.244115
                         19       1    1ixy3z2           0.833067       3.427943
                         19       1    1ixy2z3           0.833067       3.427943
                         19       1    1ixyz4            0.833067       2.244115
                         19       1    1ixz5             0.833067       0.748038
                         19       1    1iy6              0.833067       0.225542
                         19       1    1iy5z             0.833067       0.748038
                         19       1    1iy4z2            0.833067       1.295641
                         19       1    1iy3z3            0.833067       1.533023
                         19       1    1iy2z4            0.833067       1.295641
                         19       1    1iyz5             0.833067       0.748038
                         19       1    1iz6              0.833067       0.225542

                         20       1    1hx5              0.860125       0.454642
                         20       1    1hx4y             0.860125       1.363925
                         20       1    1hx4z             0.860125       1.363925
                         20       1    1hx3y2            0.860125       2.083430
                         20       1    1hx3yz            0.860125       3.608607
                         20       1    1hx3z2            0.860125       2.083430
                         20       1    1hx2y3            0.860125       2.083430
                         20       1    1hx2y2z           0.860125       4.658691
                         20       1    1hx2yz2           0.860125       4.658691
                         20       1    1hx2z3            0.860125       2.083430
                         20       1    1hxy4             0.860125       1.363925
                         20       1    1hxy3z            0.860125       3.608607
                         20       1    1hxy2z2           0.860125       4.658691
                         20       1    1hxyz3            0.860125       3.608607
                         20       1    1hxz4             0.860125       1.363925
                         20       1    1hy5              0.860125       0.454642
                         20       1    1hy4z             0.860125       1.363925
                         20       1    1hy3z2            0.860125       2.083430
                         20       1    1hy2z3            0.860125       2.083430
                         20       1    1hyz4             0.860125       1.363925
                         20       1    1hz5              0.860125       0.454642

                         21       1    1s                0.944763       0.682971

                         22       1    1gx4              1.023150       1.185137
                         22       1    1gx3y             1.023150       3.135578
                         22       1    1gx3z             1.023150       3.135578
                         22       1    1gx2y2            1.023150       4.048013
                         22       1    1gx2yz            1.023150       7.011365
                         22       1    1gx2z2            1.023150       4.048013
                         22       1    1gxy3             1.023150       3.135578
                         22       1    1gxy2z            1.023150       7.011365
                         22       1    1gxyz2            1.023150       7.011365
                         22       1    1gxz3             1.023150       3.135578
                         22       1    1gy4              1.023150       1.185137
                         22       1    1gy3z             1.023150       3.135578
                         22       1    1gy2z2            1.023150       4.048013
                         22       1    1gyz3             1.023150       3.135578
                         22       1    1gz4              1.023150       1.185137

                         23       1    1fx3              1.114180       1.877604
                         23       1    1fx2y             1.114180       4.198450
                         23       1    1fx2z             1.114180       4.198450
                         23       1    1fxy2             1.114180       4.198450
                         23       1    1fxyz             1.114180       7.271929
                         23       1    1fxz2             1.114180       4.198450
                         23       1    1fy3              1.114180       1.877604
                         23       1    1fy2z             1.114180       4.198450
                         23       1    1fyz2             1.114180       4.198450
                         23       1    1fz3              1.114180       1.877604

                         24       1    1px               1.420590       2.210681
                         24       1    1py               1.420590       2.210681
                         24       1    1pz               1.420590       2.210681

                         25       1    1hx5              1.508080       2.819833
                         25       1    1hx4y             1.508080       8.459499
                         25       1    1hx4z             1.508080       8.459499
                         25       1    1hx3y2            1.508080      12.922099
                         25       1    1hx3yz            1.508080      22.381731
                         25       1    1hx3z2            1.508080      12.922099
                         25       1    1hx2y3            1.508080      12.922099
                         25       1    1hx2y2z           1.508080      28.894691
                         25       1    1hx2yz2           1.508080      28.894691
                         25       1    1hx2z3            1.508080      12.922099
                         25       1    1hxy4             1.508080       8.459499
                         25       1    1hxy3z            1.508080      22.381731
                         25       1    1hxy2z2           1.508080      28.894691
                         25       1    1hxyz3            1.508080      22.381731
                         25       1    1hxz4             1.508080       8.459499
                         25       1    1hy5              1.508080       2.819833
                         25       1    1hy4z             1.508080       8.459499
                         25       1    1hy3z2            1.508080      12.922099
                         25       1    1hy2z3            1.508080      12.922099
                         25       1    1hyz4             1.508080       8.459499
                         25       1    1hz5              1.508080       2.819833

                         26       1    1dx2              1.639980       3.911803
                         26       1    1dxy              1.639980       6.775441
                         26       1    1dxz              1.639980       6.775441
                         26       1    1dy2              1.639980       3.911803
                         26       1    1dyz              1.639980       6.775441
                         26       1    1dz2              1.639980       3.911803

                         27       1    1s                1.697980       1.060131

                         28       1    1ix6              1.702580       3.291024
                         28       1    1ix5y             1.702580      10.915092
                         28       1    1ix5z             1.702580      10.915092
                         28       1    1ix4y2            1.702580      18.905493
                         28       1    1ix4yz            1.702580      32.745275
                         28       1    1ix4z2            1.702580      18.905493
                         28       1    1ix3y3            1.702580      22.369282
                         28       1    1ix3y2z           1.702580      50.019234
                         28       1    1ix3yz2           1.702580      50.019234
                         28       1    1ix3z3            1.702580      22.369282
                         28       1    1ix2y4            1.702580      18.905493
                         28       1    1ix2y3z           1.702580      50.019234
                         28       1    1ix2y2z2          1.702580      64.574554
                         28       1    1ix2yz3           1.702580      50.019234
                         28       1    1ix2z4            1.702580      18.905493
                         28       1    1ixy5             1.702580      10.915092
                         28       1    1ixy4z            1.702580      32.745275
                         28       1    1ixy3z2           1.702580      50.019234
                         28       1    1ixy2z3           1.702580      50.019234
                         28       1    1ixyz4            1.702580      32.745275
                         28       1    1ixz5             1.702580      10.915092
                         28       1    1iy6              1.702580       3.291024
                         28       1    1iy5z             1.702580      10.915092
                         28       1    1iy4z2            1.702580      18.905493
                         28       1    1iy3z3            1.702580      22.369282
                         28       1    1iy2z4            1.702580      18.905493
                         28       1    1iyz5             1.702580      10.915092
                         28       1    1iz6              1.702580       3.291024

                         29       1    1fx3              2.054360       7.438351
                         29       1    1fx2y             2.054360      16.632659
                         29       1    1fx2z             2.054360      16.632659
                         29       1    1fxy2             2.054360      16.632659
                         29       1    1fxyz             2.054360      28.808611
                         29       1    1fxz2             2.054360      16.632659
                         29       1    1fy3              2.054360       7.438351
                         29       1    1fy2z             2.054360      16.632659
                         29       1    1fyz2             2.054360      16.632659
                         29       1    1fz3              2.054360       7.438351

                         30       1    1gx4              2.155990       9.203732
                         30       1    1gx3y             2.155990      24.350786
                         30       1    1gx3z             2.155990      24.350786
                         30       1    1gx2y2            2.155990      31.436730
                         30       1    1gx2yz            2.155990      54.450013
                         30       1    1gx2z2            2.155990      31.436730
                         30       1    1gxy3             2.155990      24.350786
                         30       1    1gxy2z            2.155990      54.450013
                         30       1    1gxyz2            2.155990      54.450013
                         30       1    1gxz3             2.155990      24.350786
                         30       1    1gy4              2.155990       9.203732
                         30       1    1gy3z             2.155990      24.350786
                         30       1    1gy2z2            2.155990      31.436730
                         30       1    1gyz3             2.155990      24.350786
                         30       1    1gz4              2.155990       9.203732

                         31       1    1px               2.540790       4.572472
                         31       1    1py               2.540790       4.572472
                         31       1    1pz               2.540790       4.572472

                         32       1    1hx5              2.702190      18.768121
                         32       1    1hx4y             2.702190      56.304362
                         32       1    1hx4z             2.702190      56.304362
                         32       1    1hx3y2            2.702190      86.006333
                         32       1    1hx3yz            2.702190     148.967339
                         32       1    1hx3z2            2.702190      86.006333
                         32       1    1hx2y3            2.702190      86.006333
                         32       1    1hx2y2z           2.702190     192.316007
                         32       1    1hx2yz2           2.702190     192.316007
                         32       1    1hx2z3            2.702190      86.006333
                         32       1    1hxy4             2.702190      56.304362
                         32       1    1hxy3z            2.702190     148.967339
                         32       1    1hxy2z2           2.702190     192.316007
                         32       1    1hxyz3            2.702190     148.967339
                         32       1    1hxz4             2.702190      56.304362
                         32       1    1hy5              2.702190      18.768121
                         32       1    1hy4z             2.702190      56.304362
                         32       1    1hy3z2            2.702190      86.006333
                         32       1    1hy2z3            2.702190      86.006333
                         32       1    1hyz4             2.702190      56.304362
                         32       1    1hz5              2.702190      18.768121

                         33       1    1s                2.838270       1.558477

                         34       1    1dx2              3.000150      11.256663
                         34       1    1dxy              3.000150      19.497112
                         34       1    1dxz              3.000150      19.497112
                         34       1    1dy2              3.000150      11.256663
                         34       1    1dyz              3.000150      19.497112
                         34       1    1dz2              3.000150      11.256663

                         35       1    1fx3              3.116540      18.998444
                         35       1    1fx2y             3.116540      42.481813
                         35       1    1fx2z             3.116540      42.481813
                         35       1    1fxy2             3.116540      42.481813
                         35       1    1fxyz             3.116540      73.580658
                         35       1    1fxz2             3.116540      42.481813
                         35       1    1fy3              3.116540      18.998444
                         35       1    1fy2z             3.116540      42.481813
                         35       1    1fyz2             3.116540      42.481813
                         35       1    1fz3              3.116540      18.998444

                         36       1    1gx4              4.244100      59.271490
                         36       1    1gx3y             4.244100     156.817624
                         36       1    1gx3z             4.244100     156.817624
                         36       1    1gx2y2            4.244100     202.450681
                         36       1    1gx2yz            4.244100     350.654866
                         36       1    1gx2z2            4.244100     202.450681
                         36       1    1gxy3             4.244100     156.817624
                         36       1    1gxy2z            4.244100     350.654866
                         36       1    1gxyz2            4.244100     350.654866
                         36       1    1gxz3             4.244100     156.817624
                         36       1    1gy4              4.244100      59.271490
                         36       1    1gy3z             4.244100     156.817624
                         36       1    1gy2z2            4.244100     202.450681
                         36       1    1gyz3             4.244100     156.817624
                         36       1    1gz4              4.244100      59.271490

                         37       1    1dx2              4.999910      27.516506
                         37       1    1dxy              4.999910      47.659986
                         37       1    1dxz              4.999910      47.659986
                         37       1    1dy2              4.999910      27.516506
                         37       1    1dyz              4.999910      47.659986
                         37       1    1dz2              4.999910      27.516506

                         38       1    1px               5.053190      10.799338
                         38       1    1py               5.053190      10.799338
                         38       1    1pz               5.053190      10.799338

                         39       1    1s                6.151790       2.783949

                         40       1    1fx3              7.559750     139.507056
                         40       1    1fx2y             7.559750     311.947262
                         40       1    1fx2z             7.559750     311.947262
                         40       1    1fxy2             7.559750     311.947262
                         40       1    1fxyz             7.559750     540.308506
                         40       1    1fxz2             7.559750     311.947262
                         40       1    1fy3              7.559750     139.507056
                         40       1    1fy2z             7.559750     311.947262
                         40       1    1fyz2             7.559750     311.947262
                         40       1    1fz3              7.559750     139.507056

                         41       1    1dx2             12.844800     143.443975
                         41       1    1dxy             12.844800     248.452253
                         41       1    1dxz             12.844800     248.452253
                         41       1    1dy2             12.844800     143.443975
                         41       1    1dyz             12.844800     248.452253
                         41       1    1dz2             12.844800     143.443975

                         42       1    1s               13.932000       5.139492

                         43       1    1px              14.097200      38.936433
                         43       1    1py              14.097200      38.936433
                         43       1    1pz              14.097200      38.936433

                         44       1    1px              51.517500     196.735876
                         44       1    1py              51.517500     196.735876
                         44       1    1pz              51.517500     196.735876

                         45       1    1s               53.400400      14.078892

                         46       1    1s              247.064000      44.413724

       Atomic covalent radius [Angstrom]:                                  0.770

       Atomic van der Waals radius [Angstrom]:                             1.700

     The atoms of this atomic kind are PAW atoms (GAPW):
       Hard Gaussian function radius:                                      1.512
       Rho0 radius:                                                        1.512
       Maximum GTO radius used for PAW projector construction:            24.566

     GAPW Soft Basis Set                                 aug-DZVP-MOLOPT-ae_soft

       Number of orbital shell sets:                                           2
       Number of orbital shells:                                              10
       Number of primitive Cartesian functions:                                9
       Number of Cartesian basis functions:                                   35
       Number of spherical basis functions:                                   30
       Norm type:                                                              2

       Normalised Cartesian orbitals:

                        Set   Shell   Orbital            Exponent    Coefficient

                          1       1    2px               0.050000       0.000000
                                                         0.096935       0.005344
                                                         0.300899       0.144116
                                                         0.937529       0.673511
                                                         4.145546       1.425967
                          1       1    2py               0.050000       0.000000
                                                         0.096935       0.005344
                                                         0.300899       0.144116
                                                         0.937529       0.673511
                                                         4.145546       1.425967
                          1       1    2pz               0.050000       0.000000
                                                         0.096935       0.005344
                                                         0.300899       0.144116
                                                         0.937529       0.673511
                                                         4.145546       1.425967

                          1       2    3px               0.050000       0.000000
                                                         0.096935       0.066903
                                                         0.300899       0.082631
                                                         0.937529      -0.414500
                                                         4.145546      -0.833488
                          1       2    3py               0.050000       0.000000
                                                         0.096935       0.066903
                                                         0.300899       0.082631
                                                         0.937529      -0.414500
                                                         4.145546      -0.833488
                          1       2    3pz               0.050000       0.000000
                                                         0.096935       0.066903
                                                         0.300899       0.082631
                                                         0.937529      -0.414500
                                                         4.145546      -0.833488

                          1       3    4px               0.050000       0.052477
                                                         0.096935      -0.149600
                                                         0.300899      -0.031452
                                                         0.937529       0.106528
                                                         4.145546       0.000000
                          1       3    4py               0.050000       0.052477
                                                         0.096935      -0.149600
                                                         0.300899      -0.031452
                                                         0.937529       0.106528
                                                         4.145546       0.000000
                          1       3    4pz               0.050000       0.052477
                                                         0.096935      -0.149600
                                                         0.300899      -0.031452
                                                         0.937529       0.106528
                                                         4.145546       0.000000

                          1       4    3dx2              0.050000       0.000000
                                                         0.096935       0.001258
                                                         0.300899       0.105504
                                                         0.937529       0.830801
                                                         4.145546       0.718979
                          1       4    3dxy              0.050000       0.000000
                                                         0.096935       0.002179
                                                         0.300899       0.182739
                                                         0.937529       1.438990
                                                         4.145546       1.245309
                          1       4    3dxz              0.050000       0.000000
                                                         0.096935       0.002179
                                                         0.300899       0.182739
                                                         0.937529       1.438990
                                                         4.145546       1.245309
                          1       4    3dy2              0.050000       0.000000
                                                         0.096935       0.001258
                                                         0.300899       0.105504
                                                         0.937529       0.830801
                                                         4.145546       0.718979
                          1       4    3dyz              0.050000       0.000000
                                                         0.096935       0.002179
                                                         0.300899       0.182739
                                                         0.937529       1.438990
                                                         4.145546       1.245309
                          1       4    3dz2              0.050000       0.000000
                                                         0.096935       0.001258
                                                         0.300899       0.105504
                                                         0.937529       0.830801
                                                         4.145546       0.718979

                          1       5    4dx2              0.050000      -0.011665
                                                         0.096935       0.057456
                                                         0.300899      -0.258169
                                                         0.937529       0.000000
                                                         4.145546       0.000000
                          1       5    4dxy              0.050000      -0.020204
                                                         0.096935       0.099516
                                                         0.300899      -0.447162
                                                         0.937529       0.000000
                                                         4.145546       0.000000
                          1       5    4dxz              0.050000      -0.020204
                                                         0.096935       0.099516
                                                         0.300899      -0.447162
                                                         0.937529       0.000000
                                                         4.145546       0.000000
                          1       5    4dy2              0.050000      -0.011665
                                                         0.096935       0.057456
                                                         0.300899      -0.258169
                                                         0.937529       0.000000
                                                         4.145546       0.000000
                          1       5    4dyz              0.050000      -0.020204
                                                         0.096935       0.099516
                                                         0.300899      -0.447162
                                                         0.937529       0.000000
                                                         4.145546       0.000000
                          1       5    4dz2              0.050000      -0.011665
                                                         0.096935       0.057456
                                                         0.300899      -0.258169
                                                         0.937529       0.000000
                                                         4.145546       0.000000

                          1       6    4fx3              0.050000      -0.000180
                                                         0.096935       0.008160
                                                         0.300899       0.004002
                                                         0.937529       0.000000
                                                         4.145546       0.000000
                          1       6    4fx2y             0.050000      -0.000402
                                                         0.096935       0.018246
                                                         0.300899       0.008949
                                                         0.937529       0.000000
                                                         4.145546       0.000000
                          1       6    4fx2z             0.050000      -0.000402
                                                         0.096935       0.018246
                                                         0.300899       0.008949
                                                         0.937529       0.000000
                                                         4.145546       0.000000
                          1       6    4fxy2             0.050000      -0.000402
                                                         0.096935       0.018246
                                                         0.300899       0.008949
                                                         0.937529       0.000000
                                                         4.145546       0.000000
                          1       6    4fxyz             0.050000      -0.000696
                                                         0.096935       0.031603
                                                         0.300899       0.015500
                                                         0.937529       0.000000
                                                         4.145546       0.000000
                          1       6    4fxz2             0.050000      -0.000402
                                                         0.096935       0.018246
                                                         0.300899       0.008949
                                                         0.937529       0.000000
                                                         4.145546       0.000000
                          1       6    4fy3              0.050000      -0.000180
                                                         0.096935       0.008160
                                                         0.300899       0.004002
                                                         0.937529       0.000000
                                                         4.145546       0.000000
                          1       6    4fy2z             0.050000      -0.000402
                                                         0.096935       0.018246
                                                         0.300899       0.008949
                                                         0.937529       0.000000
                                                         4.145546       0.000000
                          1       6    4fyz2             0.050000      -0.000402
                                                         0.096935       0.018246
                                                         0.300899       0.008949
                                                         0.937529       0.000000
                                                         4.145546       0.000000
                          1       6    4fz3              0.050000      -0.000180
                                                         0.096935       0.008160
                                                         0.300899       0.004002
                                                         0.937529       0.000000
                                                         4.145546       0.000000

                          2       1    1s                0.060000       0.000000
                                                         0.161278       0.024253
                                                         0.523772      -0.029268
                                                         3.176528       0.666384

                          2       2    2s                0.060000       0.000000
                                                         0.161278       0.080328
                                                         0.523772       0.279468
                                                         3.176528      -0.079506

                          2       3    3s                0.060000       0.000000
                                                         0.161278       0.225687
                                                         0.523772      -0.382710
                                                         3.176528      -0.308205

                          2       4    4s                0.060000      -0.055653
                                                         0.161278      -0.019607
                                                         0.523772       0.500289
                                                         3.176528       0.067234

     AE Potential information for                                            ALL

       Description:                                       All-electron potential
                                          Krack, Parrinello, PCCP 2, 2105 (2000)

       Gaussian exponent of the core charge distribution:               4.109048
       Electronic configuration (s p d ...):                           4   2   0


 MOLECULE KIND INFORMATION


 All atoms are their own molecule, skipping detailed information


 TOTAL NUMBERS AND MAXIMUM NUMBERS

  Total number of            - Atomic kinds:                                   4
                             - Atoms:                                         11
                             - Shell sets:                                    23
                             - Shells:                                       106
                             - Primitive Cartesian functions:                140
                             - Cartesian basis functions:                    345
                             - Spherical basis functions:                    300

  Maximum angular momentum of the orbital basis functions:                     3


 MODULE QUICKSTEP: ATOMIC COORDINATES IN ANGSTROM

   Atom Kind Element         X             Y             Z       Z(eff)     Mass
      1    1 S    16     14.172890     12.668039     15.574075  16.0000  32.0650
      2    1 S    16     15.980570     13.113722     16.599524  16.0000  32.0650
      3    2 N     7     13.149580     14.458468     13.894292   7.0000  14.0067
      4    3 H     1     13.129328     15.345238     13.400476   1.0000   1.0079
      5    3 H     1     12.407448     13.792392     13.729995   1.0000   1.0079
      6    2 N     7     15.125863     17.331961     13.730925   7.0000  14.0067
      7    4 C     6     15.212094     15.087687     14.998898   6.0000  12.0107
      8    4 C     6     14.162318     14.197414     14.743283   6.0000  12.0107
      9    4 C     6     15.216384     16.334504     14.330891   6.0000  12.0107
     10    1 S    16     17.592552     15.469812     16.458356  16.0000  32.0650
     11    4 C     6     16.233641     14.700544     15.922073   6.0000  12.0107



 SCF PARAMETERS         Density guess:                                    ATOMIC
                        --------------------------------------------------------
                        max_scf:                                             500
                        max_scf_history:                                       0
                        max_diis:                                              4
                        --------------------------------------------------------
                        eps_scf:                                        1.00E-06
                        eps_scf_history:                                0.00E+00
                        eps_diis:                                       1.00E-01
                        eps_eigval:                                     1.00E-05
                        --------------------------------------------------------
                        level_shift [a.u.]:                             0.000000
                        added MOs                                       256    0
                        --------------------------------------------------------
                        Mixing method:                            BROYDEN_MIXING
                                                charge density mixing in g-space
                        --------------------------------------------------------
                        No outer SCF

 PW_GRID| Information for grid number                                          1
 PW_GRID| Grid distributed over                                   192 processors
 PW_GRID| Real space group dimensions                                   192    1
 PW_GRID| the grid is blocked:                                                NO
 PW_GRID| Cutoff [a.u.]                                                    250.0
 PW_GRID| spherical cutoff:                                                   NO
 PW_GRID|   Bounds   1           -202     202                Points:         405
 PW_GRID|   Bounds   2           -202     202                Points:         405
 PW_GRID|   Bounds   3           -202     202                Points:         405
 PW_GRID| Volume element (a.u.^3)  0.2743E-02     Volume (a.u.^3)    182205.0337
 PW_GRID| Grid span                                                    FULLSPACE
 PW_GRID|   Distribution                         Average         Max         Min
 PW_GRID|   G-Vectors                           345990.2      346275      345870
 PW_GRID|   G-Rays                                 854.3         855         854
 PW_GRID|   Real Space Points                   345990.2      492075      328050

 PW_GRID| Information for grid number                                          2
 PW_GRID| Number of the reference grid                                         1
 PW_GRID| Grid distributed over                                   192 processors
 PW_GRID| Real space group dimensions                                   192    1
 PW_GRID| the grid is blocked:                                                NO
 PW_GRID| Cutoff [a.u.]                                                     83.3
 PW_GRID| spherical cutoff:                                                   NO
 PW_GRID|   Bounds   1           -120     119                Points:         240
 PW_GRID|   Bounds   2           -120     119                Points:         240
 PW_GRID|   Bounds   3           -120     119                Points:         240
 PW_GRID| Volume element (a.u.^3)  0.1318E-01     Volume (a.u.^3)    182205.0337
 PW_GRID| Grid span                                                    FULLSPACE
 PW_GRID|   Distribution                         Average         Max         Min
 PW_GRID|   G-Vectors                            72000.0       72240       71760
 PW_GRID|   G-Rays                                 300.0         301         299
 PW_GRID|   Real Space Points                    72000.0      115200       57600

 PW_GRID| Information for grid number                                          3
 PW_GRID| Number of the reference grid                                         1
 PW_GRID| Grid distributed over                                   192 processors
 PW_GRID| Real space group dimensions                                    12   16
 PW_GRID| the grid is blocked:                                                NO
 PW_GRID| Cutoff [a.u.]                                                     27.8
 PW_GRID| spherical cutoff:                                                   NO
 PW_GRID|   Bounds   1            -67      67                Points:         135
 PW_GRID|   Bounds   2            -67      67                Points:         135
 PW_GRID|   Bounds   3            -67      67                Points:         135
 PW_GRID| Volume element (a.u.^3)  0.7406E-01     Volume (a.u.^3)    182205.0337
 PW_GRID| Grid span                                                    FULLSPACE
 PW_GRID|   Distribution                         Average         Max         Min
 PW_GRID|   G-Vectors                            12814.5       12960       12690
 PW_GRID|   G-Rays                                  94.9          96          94
 PW_GRID|   Real Space Points                    12814.5       14580       11880

 PW_GRID| Information for grid number                                          4
 PW_GRID| Number of the reference grid                                         1
 PW_GRID| Grid distributed over                                   192 processors
 PW_GRID| Real space group dimensions                                    12   16
 PW_GRID| the grid is blocked:                                                NO
 PW_GRID| Cutoff [a.u.]                                                      9.3
 PW_GRID| spherical cutoff:                                                   NO
 PW_GRID|   Bounds   1            -40      39                Points:          80
 PW_GRID|   Bounds   2            -40      39                Points:          80
 PW_GRID|   Bounds   3            -40      39                Points:          80
 PW_GRID| Volume element (a.u.^3)  0.3559         Volume (a.u.^3)    182205.0337
 PW_GRID| Grid span                                                    FULLSPACE
 PW_GRID|   Distribution                         Average         Max         Min
 PW_GRID|   G-Vectors                             2666.7        2800        2560
 PW_GRID|   G-Rays                                  33.3          35          32
 PW_GRID|   Real Space Points                     2666.7        2800        2400

 POISSON| Solver                                                         WAVELET
 POISSON| Wavelet| Scaling function                                           40
 POISSON| Periodicity                                                       NONE

 RS_GRID| Information for grid number                                          1
 RS_GRID|   Bounds   1           -202     202                Points:         405
 RS_GRID|   Bounds   2           -202     202                Points:         405
 RS_GRID|   Bounds   3           -202     202                Points:         405
 RS_GRID| Real space distribution over                                  4 groups
 RS_GRID| Real space distribution along direction                              1
 RS_GRID| Border size                                                         35
 RS_GRID| Real space distribution over                                  6 groups
 RS_GRID| Real space distribution along direction                              2
 RS_GRID| Border size                                                         35
 RS_GRID| Real space distribution over                                  8 groups
 RS_GRID| Real space distribution along direction                              3
 RS_GRID| Border size                                                         35
 RS_GRID|   Distribution                         Average         Max         Min
 RS_GRID|   Planes                                 171.2         172         171
 RS_GRID|   Distribution                         Average         Max         Min
 RS_GRID|   Planes                                 137.5         138         137
 RS_GRID|   Distribution                         Average         Max         Min
 RS_GRID|   Planes                                 120.6         121         120

 RS_GRID| Information for grid number                                          2
 RS_GRID|   Bounds   1           -120     119                Points:         240
 RS_GRID|   Bounds   2           -120     119                Points:         240
 RS_GRID|   Bounds   3           -120     119                Points:         240
 RS_GRID| Real space distribution over                                  4 groups
 RS_GRID| Real space distribution along direction                              1
 RS_GRID| Border size                                                         39
 RS_GRID| Real space distribution over                                  6 groups
 RS_GRID| Real space distribution along direction                              2
 RS_GRID| Border size                                                         39
 RS_GRID| Real space distribution over                                  8 groups
 RS_GRID| Real space distribution along direction                              3
 RS_GRID| Border size                                                         39
 RS_GRID|   Distribution                         Average         Max         Min
 RS_GRID|   Planes                                 138.0         138         138
 RS_GRID|   Distribution                         Average         Max         Min
 RS_GRID|   Planes                                 118.0         118         118
 RS_GRID|   Distribution                         Average         Max         Min
 RS_GRID|   Planes                                 108.0         108         108

 RS_GRID| Information for grid number                                          3
 RS_GRID|   Bounds   1            -67      67                Points:         135
 RS_GRID|   Bounds   2            -67      67                Points:         135
 RS_GRID|   Bounds   3            -67      67                Points:         135
 RS_GRID| Real space fully replicated
 RS_GRID| Group size                                                           1

 RS_GRID| Information for grid number                                          4
 RS_GRID|   Bounds   1            -40      39                Points:          80
 RS_GRID|   Bounds   2            -40      39                Points:          80
 RS_GRID|   Bounds   3            -40      39                Points:          80
 RS_GRID| Real space fully replicated
 RS_GRID| Group size                                                           1

  HFX_INFO| Replica ID:                                                        1
  HFX_INFO| FRACTION:                                               0.2500000000
  HFX_INFO| Interaction Potential:                                       COULOMB
  HFX_INFO| EPS_SCHWARZ:                                                 1.0E-10
  HFX_INFO| EPS_SCHWARZ_FORCES                                           1.0E-08
  HFX_INFO| EPS_STORAGE_SCALING:                                         1.0E+00
  HFX_INFO| NBINS:                                                            64
  HFX_INFO| BLOCK_SIZE:                                                        1
  HFX_INFO| Number of periodic shells considered:                           NONE
  HFX_INFO| Number of periodic cells considered:                            NONE


 OVERLAP MATRIX CONDITION NUMBER
 1-Norm Condition Number (Estimate)
   CN : |A|*|A^-1|:  2.894E+001 *  1.059E+004   = 3.064E+005  Log(1-CN):  5.4862
 1-Norm and 2-Norm Condition Numbers using Diagonalization
   CN : |A|*|A^-1|:  2.894E+001 *  1.626E+004   = 4.707E+005  Log(1-CN):  5.6727
   CN : max/min ev:  9.162E+000 /  2.400E-004   = 3.817E+004  Log(2-CN):  4.5817

 Extrapolation method: initial_guess

 Atomic guess: The first density matrix is obtained in terms of atomic orbitals
               and electronic configurations assigned to each atomic kind

 Guess for atomic kind: S

 Electronic structure
    Total number of core electrons                                          0.00
    Total number of valence electrons                                      16.00
    Total number of electrons                                              16.00
    Multiplicity                                                   not specified
    S      2.00  2.00  2.00
    P      6.00  4.00


 *******************************************************************************
                  Iteration          Convergence                     Energy [au]
 *******************************************************************************
                          1        0.508992                    -396.532503655990
                          2        0.158529                    -396.545404359598
                          3        0.440887E-01                -396.549661500960
                          4        0.692753E-03                -396.550151447682
                          5        0.988290E-05                -396.550151571718
                          6        0.574825E-08                -396.550151571747

 Energy components [Hartree]           Total Energy ::         -396.550151571747
                                        Band Energy ::         -227.617519441937
                                     Kinetic Energy ::          396.442273376157
                                   Potential Energy ::         -792.992424947904
                                      Virial (-V/T) ::            2.000272115773
                                        Core Energy ::         -549.094947582507
                                          XC Energy ::          -24.160563523673
                                     Coulomb Energy ::          176.705359534434

 Orbital energies  State     L     Occupation   Energy[a.u.]          Energy[eV]

                       1     0          2.000     -87.724168        -2387.096014
                       2     0          2.000      -7.695851         -209.414757
                       3     0          2.000      -0.626682          -17.052872

                       1     1          6.000      -5.751215         -156.498516
                       2     1          4.000      -0.254207           -6.917329


 Total Electron Density at R=0:                                      2398.079628

 Guess for atomic kind: N

 Electronic structure
    Total number of core electrons                                          0.00
    Total number of valence electrons                                       7.00
    Total number of electrons                                               7.00
    Multiplicity                                                   not specified
    S      2.00  2.00
    P      3.00


 *******************************************************************************
                  Iteration          Convergence                     Energy [au]
 *******************************************************************************
                          1        0.369390                     -53.855844969821
                          2        0.273078                     -53.870170065147
                          3        0.611788E-02                 -53.916370559561
                          4        0.258022E-03                 -53.916388709621
                          5        0.100264E-04                 -53.916388753242
                          6        0.664221E-07                 -53.916388753301

 Energy components [Hartree]           Total Energy ::          -53.916388753301
                                        Band Energy ::          -30.277671893433
                                     Kinetic Energy ::           53.943449639882
                                   Potential Energy ::         -107.859838393183
                                      Virial (-V/T) ::            1.999498347125
                                        Core Energy ::          -73.381511064535
                                          XC Energy ::           -6.114835262346
                                     Coulomb Energy ::           25.579957573581

 Orbital energies  State     L     Occupation   Energy[a.u.]          Energy[eV]

                       1     0          2.000     -14.050793         -382.341534
                       2     0          2.000      -0.664480          -18.081407

                       1     1          3.000      -0.282375           -7.683823


 Total Electron Density at R=0:                                       189.469012

 Guess for atomic kind: H

 Electronic structure
    Total number of core electrons                                          0.00
    Total number of valence electrons                                       1.00
    Total number of electrons                                               1.00
    Multiplicity                                                   not specified
    S      1.00


 *******************************************************************************
                  Iteration          Convergence                     Energy [au]
 *******************************************************************************
                          1        0.100530E-01                  -0.443985550189
                          2        0.945329E-03                  -0.444090029920
                          3        0.103025E-03                  -0.444092117382
                          4        0.802727E-07                  -0.444092129626

 Energy components [Hartree]           Total Energy ::           -0.444092129626
                                        Band Energy ::           -0.233486998571
                                     Kinetic Energy ::            0.420413643923
                                   Potential Energy ::           -0.864505773549
                                      Virial (-V/T) ::            2.056321877382
                                        Core Energy ::           -0.493965249450
                                          XC Energy ::           -0.230662915809
                                     Coulomb Energy ::            0.280536035634

 Orbital energies  State     L     Occupation   Energy[a.u.]          Energy[eV]

                       1     0          1.000      -0.233487           -6.353504


 Total Electron Density at R=0:                                         0.246678

 Guess for atomic kind: C

 Electronic structure
    Total number of core electrons                                          0.00
    Total number of valence electrons                                       6.00
    Total number of electrons                                               6.00
    Multiplicity                                                   not specified
    S      2.00  2.00
    P      2.00


 *******************************************************************************
                  Iteration          Convergence                     Energy [au]
 *******************************************************************************
                          1        0.133902                     -37.363061759844
                          2        0.102325                     -37.368472442707
                          3        0.860737E-03                 -37.376215693871
                          4        0.849047E-04                 -37.376216293501
                          5        0.219397E-06                 -37.376216298714

 Energy components [Hartree]           Total Energy ::          -37.376216298714
                                        Band Energy ::          -21.245708131867
                                     Kinetic Energy ::           37.464666877769
                                   Potential Energy ::          -74.840883176484
                                      Virial (-V/T) ::            1.997639093407
                                        Core Energy ::          -50.271057779086
                                          XC Energy ::           -4.736056292831
                                     Coulomb Energy ::           17.630897773203

 Orbital energies  State     L     Occupation   Energy[a.u.]          Energy[eV]

                       1     0          2.000      -9.941022         -270.508975
                       2     0          2.000      -0.490185          -13.338601

                       1     1          2.000      -0.191647           -5.214984


 Total Electron Density at R=0:                                       116.283880
 Re-scaling the density matrix to get the right number of electrons
                  # Electrons              Trace(P)               Scaling factor
                           88                88.000                        1.000

 Number of electrons:                                                         88
 Number of occupied orbitals:                                                 44
 Number of molecular orbitals:                                               300

 Number of orbital functions:                                                300
 Number of independent orbital functions:                                    300


 SCF WAVEFUNCTION OPTIMIZATION

  Step     Update method      Time    Convergence         Total energy    Change
  ------------------------------------------------------------------------------

  HFX_MEM_INFO| Est. max. program size before HFX [MiB]:                     773
  HFX_MEM_INFO| Number of cart. primitive ERI's calculated:         216733565688
  HFX_MEM_INFO| Number of sph. ERI's calculated:                      1248321228
  HFX_MEM_INFO| Number of sph. ERI's stored in-core:                  1248321228
  HFX_MEM_INFO| Number of sph. ERI's stored on disk:                           0
  HFX_MEM_INFO| Number of sph. ERI's calculated on the fly:                    0
  HFX_MEM_INFO| Total memory consumption ERI's RAM [MiB]:                   4436
  HFX_MEM_INFO| Whereof max-vals [MiB]:                                        6
  HFX_MEM_INFO| Total compression factor ERI's RAM:                         2.15
  HFX_MEM_INFO| Total memory consumption ERI's disk [MiB]:                     0
  HFX_MEM_INFO| Total compression factor ERI's disk:                        0.00
  HFX_MEM_INFO| Size of density/Fock matrix [MiB]:                             0
  HFX_MEM_INFO| Size of buffers [MiB]:                                        24
  HFX_MEM_INFO| Est. max. program size after HFX  [MiB]:                    1362

     1 NoMix/Diag. 0.10E+00   31.6     3.03002139     -1458.4952647876 -1.46E+03
     2 Broy./Diag. 0.10E+00    1.1     0.21462341     -1453.0231427301  5.47E+00
     3 Broy./Diag. 0.10E+00    0.9     0.03941640     -1452.7499029797  2.73E-01
     4 Broy./Diag. 0.10E+00    0.9     0.17541818     -1453.2796053378 -5.30E-01
     5 Broy./Diag. 0.10E+00    0.9     0.34342987     -1454.8949075532 -1.62E+00
     6 Broy./Diag. 0.10E+00    0.8     0.04093554     -1456.3009946234 -1.41E+00
     7 Broy./Diag. 0.10E+00    0.8     0.01883955     -1456.4549583371 -1.54E-01
     8 Broy./Diag. 0.10E+00    0.9     0.01541474     -1456.5125044951 -5.75E-02
     9 Broy./Diag. 0.10E+00    0.9     0.12376105     -1456.4070812027  1.05E-01
    10 Broy./Diag. 0.10E+00    0.8     0.04040183     -1455.9863632051  4.21E-01
    11 Broy./Diag. 0.10E+00    0.8     0.06728087     -1455.8652167498  1.21E-01
    12 Broy./Diag. 0.10E+00    0.8     0.01088878     -1455.9804999737 -1.15E-01
    13 Broy./Diag. 0.10E+00    0.9     0.04485747     -1455.9653276546  1.52E-02
    14 Broy./Diag. 0.10E+00    0.8     0.03048792     -1455.8868059776  7.85E-02
    15 Broy./Diag. 0.10E+00    0.9     0.07587354     -1456.0764935039 -1.90E-01
    16 Broy./Diag. 0.10E+00    0.8     0.01416172     -1456.2749893075 -1.98E-01
    17 Broy./Diag. 0.10E+00    0.8     0.01785176     -1456.2583224612  1.67E-02
    18 Broy./Diag. 0.10E+00    0.8     0.03374649     -1456.2505943181  7.73E-03
    19 Broy./Diag. 0.10E+00    0.8     0.01116375     -1456.3509559783 -1.00E-01
    20 Broy./Diag. 0.10E+00    0.8     0.00332520     -1456.3645479498 -1.36E-02
    21 Broy./Diag. 0.10E+00    0.8     0.00581915     -1456.3703666569 -5.82E-03
    22 Broy./Diag. 0.10E+00    0.9     0.01137233     -1456.3887578173 -1.84E-02
    23 Broy./Diag. 0.10E+00    0.8     0.00276499     -1456.3956855786 -6.93E-03
    24 Broy./Diag. 0.10E+00    0.8     0.00138661     -1456.3990326742 -3.35E-03
    25 Broy./Diag. 0.10E+00    0.8     0.00350150     -1456.4085484300 -9.52E-03
    26 Broy./Diag. 0.10E+00    0.9     0.00325271     -1456.4164539531 -7.91E-03
    27 Broy./Diag. 0.10E+00    0.8     0.00676945     -1456.4141587719  2.30E-03
    28 Broy./Diag. 0.10E+00    0.9     0.00339874     -1456.4074773077  6.68E-03
    29 Broy./Diag. 0.10E+00    0.8     0.00261399     -1456.4046205561  2.86E-03
    30 Broy./Diag. 0.10E+00    0.8     0.00737766     -1456.4023844099  2.24E-03
    31 Broy./Diag. 0.10E+00    0.8     0.00382811     -1456.4066472237 -4.26E-03
    32 Broy./Diag. 0.10E+00    0.8     0.00145570     -1456.4007393182  5.91E-03
    33 Broy./Diag. 0.10E+00    0.8     0.00132585     -1456.3987251136  2.01E-03
    34 Broy./Diag. 0.10E+00    0.9     0.00230632     -1456.4001374034 -1.41E-03
    35 Broy./Diag. 0.10E+00    0.8     0.00126245     -1456.3998094538  3.28E-04
    36 Broy./Diag. 0.10E+00    0.8     0.00085572     -1456.4002285298 -4.19E-04
    37 Broy./Diag. 0.10E+00    0.9     0.00130660     -1456.3993408139  8.88E-04
    38 Broy./Diag. 0.10E+00    0.9     0.00088079     -1456.3972556199  2.09E-03
    39 Broy./Diag. 0.10E+00    0.8     0.00120425     -1456.3997679080 -2.51E-03
    40 Broy./Diag. 0.10E+00    0.8     0.00132957     -1456.3996121516  1.56E-04
    41 Broy./Diag. 0.10E+00    0.8     0.00024221     -1456.3954854771  4.13E-03
    42 Broy./Diag. 0.10E+00    0.8     0.00051641     -1456.3950108368  4.75E-04
    43 Broy./Diag. 0.10E+00    0.8     0.00055373     -1456.3952383182 -2.27E-04
    44 Broy./Diag. 0.10E+00    0.8     0.00026823     -1456.3952990007 -6.07E-05
    45 Broy./Diag. 0.10E+00    0.8     0.00052238     -1456.3954149214 -1.16E-04
    46 Broy./Diag. 0.10E+00    0.8     0.00029824     -1456.3948846620  5.30E-04
    47 Broy./Diag. 0.10E+00    0.8     0.00043748     -1456.3957997898 -9.15E-04
    48 Broy./Diag. 0.10E+00    0.9     0.00045551     -1456.3965546671 -7.55E-04
    49 Broy./Diag. 0.10E+00    0.8     0.00024404     -1456.3954503133  1.10E-03
    50 Broy./Diag. 0.10E+00    0.9     0.00042728     -1456.3950587371  3.92E-04
    51 Broy./Diag. 0.10E+00    0.8     0.00011431     -1456.3958484653 -7.90E-04
    52 Broy./Diag. 0.10E+00    0.8     0.00023027     -1456.3959482419 -9.98E-05
    53 Broy./Diag. 0.10E+00    0.8     0.00007811     -1456.3954763054  4.72E-04
    54 Broy./Diag. 0.10E+00    0.8     0.00021711     -1456.3951775172  2.99E-04
    55 Broy./Diag. 0.10E+00    0.8     0.00018460     -1456.3951985728 -2.11E-05
    56 Broy./Diag. 0.10E+00    0.8     0.00007249     -1456.3949637785  2.35E-04
    57 Broy./Diag. 0.10E+00    0.8     0.00004194     -1456.3948777573  8.60E-05
    58 Broy./Diag. 0.10E+00    0.8     0.00012252     -1456.3949622011 -8.44E-05
    59 Broy./Diag. 0.10E+00    0.8     0.00006893     -1456.3949744023 -1.22E-05
    60 Broy./Diag. 0.10E+00    0.9     0.00002040     -1456.3951060039 -1.32E-04
    61 Broy./Diag. 0.10E+00    0.8     0.00005741     -1456.3952183746 -1.12E-04
    62 Broy./Diag. 0.10E+00    0.9     0.00003451     -1456.3951104716  1.08E-04
    63 Broy./Diag. 0.10E+00    0.8     0.00005980     -1456.3951740368 -6.36E-05
    64 Broy./Diag. 0.10E+00    0.8     0.00002639     -1456.3952541644 -8.01E-05
    65 Broy./Diag. 0.10E+00    0.8     0.00001456     -1456.3952207361  3.34E-05
    66 Broy./Diag. 0.10E+00    0.8     0.00002875     -1456.3951905801  3.02E-05
    67 Broy./Diag. 0.10E+00    0.8     0.00002202     -1456.3952254709 -3.49E-05
    68 Broy./Diag. 0.10E+00    0.8     0.00001638     -1456.3951871038  3.84E-05
    69 Broy./Diag. 0.10E+00    0.8     0.00001018     -1456.3951525623  3.45E-05
    70 Broy./Diag. 0.10E+00    0.9     0.00001726     -1456.3951599660 -7.40E-06
    71 Broy./Diag. 0.10E+00    0.9     0.00002488     -1456.3951681285 -8.16E-06
    72 Broy./Diag. 0.10E+00    0.8     0.00000813     -1456.3951195985  4.85E-05
    73 Broy./Diag. 0.10E+00    0.9     0.00000981     -1456.3951072410  1.24E-05
    74 Broy./Diag. 0.10E+00    0.9     0.00000523     -1456.3951188892 -1.16E-05
    75 Broy./Diag. 0.10E+00    0.8     0.00000686     -1456.3951173536  1.54E-06
    76 Broy./Diag. 0.10E+00    0.8     0.00000467     -1456.3951188004 -1.45E-06
    77 Broy./Diag. 0.10E+00    0.8     0.00000184     -1456.3951297942 -1.10E-05
    78 Broy./Diag. 0.10E+00    0.8     0.00000323     -1456.3951400437 -1.02E-05
    79 Broy./Diag. 0.10E+00    0.9     0.00000165     -1456.3951453653 -5.32E-06
    80 Broy./Diag. 0.10E+00    0.8     0.00000125     -1456.3951451307  2.35E-07
    81 Broy./Diag. 0.10E+00    0.8     0.00000106     -1456.3951414123  3.72E-06
    82 Broy./Diag. 0.10E+00    0.8     0.00000299     -1456.3951391439  2.27E-06
    83 Broy./Diag. 0.10E+00    0.9     0.00000096     -1456.3951386654  4.79E-07

  *** SCF run converged in    83 steps ***


  Electronic density on regular grids:        -50.9461450184       37.0538549816
  Core density on regular grids:               88.0000000000       -0.0000000000
  Hard and soft densities (Lebedev):         -363.8057795408     -326.7519246137
  Total Rho_soft + Rho1_hard - Rho1_soft      -87.9999999456
  Total charge density (r-space):               0.0000000544
  Total Rho_soft + Rho0_soft (g-space):         0.0000008532

  Overlap energy of the core charge distribution:               0.00002496248591
  Self energy of the core charge distribution:               -730.70156426683309
  Core Hamiltonian energy:                                   -728.17499160872308
  Hartree energy:                                             197.78778869630065
  Exchange-correlation energy:                                -17.54074276894106
  Hartree-Fock Exchange energy:                               -27.37763264105636

  GAPW| Exc from hard and soft atomic rho1:                   -67.55417665758043
  GAPW| local Eh = 1 center integrals:                        -82.83384438107028

  Total energy:                                             -1456.39513866541802

 !-----------------------------------------------------------------------------!
                     Mulliken Population Analysis

 #  Atom  Element  Kind  Atomic population                           Net charge
       1     S        1         16.228588                             -0.228588
       2     S        1         16.118590                             -0.118590
       3     N        2          8.960006                             -1.960006
       4     H        3         -0.075855                              1.075855
       5     H        3          0.089713                              0.910287
       6     N        2          8.301823                             -1.301823
       7     C        4          5.892808                              0.107192
       8     C        4          5.453004                              0.546996
       9     C        4          5.039481                              0.960519
      10     S        1         16.395116                             -0.395116
      11     C        4          5.596725                              0.403275
 # Total charge                             88.000000                  0.000000

 !-----------------------------------------------------------------------------!

 !-----------------------------------------------------------------------------!
                           Hirshfeld Charges

  #Atom  Element  Kind  Ref Charge     Population                    Net charge
      1       S      1      16.000         16.316                        -0.316
      2       S      1      16.000         16.232                        -0.232
      3       N      2       7.000          7.925                        -0.925
      4       H      3       1.000          0.427                         0.573
      5       H      3       1.000          0.432                         0.568
      6       N      2       7.000          7.300                        -0.300
      7       C      4       6.000          5.981                         0.019
      8       C      4       6.000          5.565                         0.435
      9       C      4       6.000          5.883                         0.117
     10       S      1      16.000         16.586                        -0.586
     11       C      4       6.000          5.349                         0.651

  Total Charge                                                            0.006
 !-----------------------------------------------------------------------------!
  
 -------------------------------------------------------------------------------
 -                                                                             -
 -                          BANDSTRUCTURE CALCULATION                          -
 -                                                                             -
 -------------------------------------------------------------------------------
  
 Number of occupied molecular orbitals (MOs) = Number of occupied bands       44
 Number of unoccupied (= virtual) MOs = Number of unoccupied bands           256
 Number of Gaussian basis functions for MOs                                  300
 K-point mesh for the density of states (DOS) and the self-energy      1   1   1
  
 -------------------------------------------------------------------------------
 -                                                                             -
 -                                GW CALCULATION                               -
 -                                                                             -
 -------------------------------------------------------------------------------
  
 Input: Number of time/freq. points                                           30
 Input: ω_max for fitting Σ(iω) (eV)                                        10.0
 Input: Filter threshold for sparse tensor operations                    1.0E-11
 Input: Apply Hedin shift                                                      F
  
 Number of auxiliary Gaussian basis functions for χ, ε, W                   2543
 Cutoff radius for the truncated Coulomb operator in Σ^x:               2645.9 Å
 Cutoff radius for the truncated Coulomb operator in RI metric:           30.0 Å
 Regularization parameter of RI                                          1.0E-02
 Regularization parameter of minimax grids                               1.0E-06
 Lattice sum size for V(k):                                                    3
  
 K-point mesh 1 for χ, ε, W                                            1   1   1
 K-point mesh 2 for χ, ε, W (for k-point extrapolation of W)           1   1   1
 Approximate the k-point extrapolation                                         F
 Group size for tensor operations                                            192
 
 Computed 3-center integrals (µν|P), execution time                        0.8 s
 Percentage of non-zero (µν|P)                                         100.000 %
 Max. distance between µ,ν in non-zero (µν|P)                              6.1 A
 Required memory if storing all 3-center integrals (µν|P)                   1 GB
 
 Number of i and j atoms in M_λνP(τ), N_νλQ(τ):                               65
 Number of inner loop atoms for µ in M_λνP = sum_µ (µν|P) G_µλ                11
 
 SCF direct band gap (eV)                                                   4.27
 Max. SCF eigval diff. (eV)                                             54964.40
 E-Range for minimax grid                                               12869.89
 Number of Padé parameters for analytic continuation:                          5
 
 Computed χ(iτ,k=0) for time point            1 / 30,    Execution time    1.2 s
 Computed χ(iτ,k=0) for time point            2 / 30,    Execution time    1.1 s
 Computed χ(iτ,k=0) for time point            3 / 30,    Execution time    1.1 s
 Computed χ(iτ,k=0) for time point            4 / 30,    Execution time    1.1 s
 Computed χ(iτ,k=0) for time point            5 / 30,    Execution time    1.0 s
 Computed χ(iτ,k=0) for time point            6 / 30,    Execution time    1.1 s
 Computed χ(iτ,k=0) for time point            7 / 30,    Execution time    1.1 s
 Computed χ(iτ,k=0) for time point            8 / 30,    Execution time    1.1 s
 Computed χ(iτ,k=0) for time point            9 / 30,    Execution time    1.1 s
 Computed χ(iτ,k=0) for time point           10 / 30,    Execution time    1.1 s
 Computed χ(iτ,k=0) for time point           11 / 30,    Execution time    1.0 s
 Computed χ(iτ,k=0) for time point           12 / 30,    Execution time    1.0 s
 Computed χ(iτ,k=0) for time point           13 / 30,    Execution time    1.0 s
 Computed χ(iτ,k=0) for time point           14 / 30,    Execution time    1.1 s
 Computed χ(iτ,k=0) for time point           15 / 30,    Execution time    1.0 s
 Computed χ(iτ,k=0) for time point           16 / 30,    Execution time    1.1 s
 Computed χ(iτ,k=0) for time point           17 / 30,    Execution time    1.0 s
 Computed χ(iτ,k=0) for time point           18 / 30,    Execution time    1.0 s
 Computed χ(iτ,k=0) for time point           19 / 30,    Execution time    1.0 s
 Computed χ(iτ,k=0) for time point           20 / 30,    Execution time    1.1 s
 Computed χ(iτ,k=0) for time point           21 / 30,    Execution time    1.0 s
 Computed χ(iτ,k=0) for time point           22 / 30,    Execution time    1.0 s
 Computed χ(iτ,k=0) for time point           23 / 30,    Execution time    1.0 s
 Computed χ(iτ,k=0) for time point           24 / 30,    Execution time    1.1 s
 Computed χ(iτ,k=0) for time point           25 / 30,    Execution time    1.1 s
 Computed χ(iτ,k=0) for time point           26 / 30,    Execution time    1.0 s
 Computed χ(iτ,k=0) for time point           27 / 30,    Execution time    1.0 s
 Computed χ(iτ,k=0) for time point           28 / 30,    Execution time    1.0 s
 Computed χ(iτ,k=0) for time point           29 / 30,    Execution time    1.0 s
 Computed χ(iτ,k=0) for time point           30 / 30,    Execution time    1.0 s
 
 Computed W(iτ,k) for k-point batch           1 /  1,    Execution time   17.7 s
 
 Computed Σ^x(k=0),                                      Execution time    1.2 s
 
 Computed Σ^c(iτ,k=0) for time point          1 / 30,    Execution time    1.3 s
 Computed Σ^c(iτ,k=0) for time point          2 / 30,    Execution time    1.3 s
 Computed Σ^c(iτ,k=0) for time point          3 / 30,    Execution time    1.3 s
 Computed Σ^c(iτ,k=0) for time point          4 / 30,    Execution time    1.3 s
 Computed Σ^c(iτ,k=0) for time point          5 / 30,    Execution time    1.3 s
 Computed Σ^c(iτ,k=0) for time point          6 / 30,    Execution time    1.3 s
 Computed Σ^c(iτ,k=0) for time point          7 / 30,    Execution time    1.3 s
 Computed Σ^c(iτ,k=0) for time point          8 / 30,    Execution time    1.3 s
 Computed Σ^c(iτ,k=0) for time point          9 / 30,    Execution time    1.3 s
 Computed Σ^c(iτ,k=0) for time point         10 / 30,    Execution time    1.3 s
 Computed Σ^c(iτ,k=0) for time point         11 / 30,    Execution time    1.3 s
 Computed Σ^c(iτ,k=0) for time point         12 / 30,    Execution time    1.3 s
 Computed Σ^c(iτ,k=0) for time point         13 / 30,    Execution time    1.2 s
 Computed Σ^c(iτ,k=0) for time point         14 / 30,    Execution time    1.3 s
 Computed Σ^c(iτ,k=0) for time point         15 / 30,    Execution time    1.3 s
 Computed Σ^c(iτ,k=0) for time point         16 / 30,    Execution time    1.3 s
 Computed Σ^c(iτ,k=0) for time point         17 / 30,    Execution time    1.2 s
 Computed Σ^c(iτ,k=0) for time point         18 / 30,    Execution time    1.3 s
 Computed Σ^c(iτ,k=0) for time point         19 / 30,    Execution time    1.3 s
 Computed Σ^c(iτ,k=0) for time point         20 / 30,    Execution time    1.3 s
 Computed Σ^c(iτ,k=0) for time point         21 / 30,    Execution time    1.3 s
 Computed Σ^c(iτ,k=0) for time point         22 / 30,    Execution time    1.3 s
 Computed Σ^c(iτ,k=0) for time point         23 / 30,    Execution time    1.3 s
 Computed Σ^c(iτ,k=0) for time point         24 / 30,    Execution time    1.2 s
 Computed Σ^c(iτ,k=0) for time point         25 / 30,    Execution time    1.2 s
 Computed Σ^c(iτ,k=0) for time point         26 / 30,    Execution time    1.3 s
 Computed Σ^c(iτ,k=0) for time point         27 / 30,    Execution time    1.3 s
 Computed Σ^c(iτ,k=0) for time point         28 / 30,    Execution time    1.3 s
 Computed Σ^c(iτ,k=0) for time point         29 / 30,    Execution time    1.3 s
 Computed Σ^c(iτ,k=0) for time point         30 / 30,    Execution time    1.3 s
 
 Sparsity of Σ^c(iτ,k=0): Percentage of skipped atom pairs:                0.0 %

 
 SCF valence band maximum (eV):                                           -6.736
 SCF conduction band minimum (eV):                                        -2.465
 SCF indirect band gap (eV):                                               4.271
 SCF direct band gap (eV):                                                 4.271
 
 G0W0 valence band maximum (eV):                                          -7.929
 G0W0 conduction band minimum (eV):                                       -0.693
 G0W0 indirect band gap (eV):                                              7.236
 G0W0 direct band gap (eV):                                                7.236
 
 Hartree-Fock with SCF orbitals valence band maximum (eV):                -8.416
 Hartree-Fock with SCF orbitals conduction band minimum (eV)               1.173
 Hartree-Fock with SCF orbitals indirect band gap (eV):                    9.589
 Hartree-Fock with SCF orbitals direct band gap (eV):                      9.589

 ENERGY| Total FORCE_EVAL ( QS ) energy [hartree]          -1456.395138665418017

 -------------------------------------------------------------------------------
 -                                                                             -
 -                                DBCSR STATISTICS                             -
 -                                                                             -
 -------------------------------------------------------------------------------
 COUNTER                                    TOTAL       BLAS       SMM       ACC
 flops     9 x     9 x    12               484056     100.0%      0.0%      0.0%     
 flops     9 x    34 x    12              1828656     100.0%      0.0%      0.0%     
 flops    34 x     9 x    12              1828656     100.0%      0.0%      0.0%     
 flops    30 x     9 x    12              3227040     100.0%      0.0%      0.0%     
 flops     9 x    30 x    12              3227040     100.0%      0.0%      0.0%     
 flops     9 x     9 x    32             11617344     100.0%      0.0%      0.0%     
 flops    34 x    34 x    12             13816512     100.0%      0.0%      0.0%     
 flops    30 x    34 x    12             18286560     100.0%      0.0%      0.0%     
 flops    34 x    30 x    12             18286560     100.0%      0.0%      0.0%     
 flops    30 x    30 x    12             37648800     100.0%      0.0%      0.0%     
 flops     9 x    34 x    32             43887744     100.0%      0.0%      0.0%     
 flops    34 x     9 x    32             43887744     100.0%      0.0%      0.0%     
 flops    30 x     9 x    32             77448960     100.0%      0.0%      0.0%     
 flops     9 x    30 x    32             77448960     100.0%      0.0%      0.0%     
 flops    34 x    34 x    32            331596288     100.0%      0.0%      0.0%     
 flops    30 x    34 x    32            438877440     100.0%      0.0%      0.0%     
 flops    34 x    30 x    32            438877440     100.0%      0.0%      0.0%     
 flops    30 x    30 x    32            903571200     100.0%      0.0%      0.0%     
 flops inhomo. stacks                           0       0.0%      0.0%      0.0%
 flops total                         2.465847E+09     100.0%      0.0%      0.0%
 flops max/rank                    134.460000E+06     100.0%      0.0%      0.0%
 matmuls inhomo. stacks                         0       0.0%      0.0%      0.0%
 matmuls total                              54780     100.0%      0.0%      0.0%
 number of processed stacks                 54780     100.0%      0.0%      0.0%
 average stack size                                     1.0       0.0       0.0
 marketing flops                   657.360000E+06
 -------------------------------------------------------------------------------
 # multiplications                             83
 max memory usage/rank              19.293008E+09
 # max total images/rank                        3
 # max 3D layers                                1
 # MPI messages exchanged                  701184
 MPI messages size (bytes):
  total size                         1.792800E+09
  min size                           0.000000E+00
  max size                          23.040000E+03
  average size                       2.556818E+03
 MPI breakdown and total messages size (bytes):
             size <=      128              522734                        0
       128 < size <=     8192               92130                491800896
      8192 < size <=    32768               86320               1300999104
     32768 < size <=   131072                   0                        0
    131072 < size <=  4194304                   0                        0
   4194304 < size <= 16777216                   0                        0
  16777216 < size                               0                        0
 -------------------------------------------------------------------------------

 *** WARNING in dbcsr_mm.F:301 :: Using a non-square number of MPI ranks ***
 *** might lead to poor performance. Used ranks: 192 Suggested: 196 400  ***

 -------------------------------------------------------------------------------
 -                                                                             -
 -                      DBCSR MESSAGE PASSING PERFORMANCE                      -
 -                                                                             -
 -------------------------------------------------------------------------------
 ROUTINE             CALLS      AVE VOLUME [Bytes]
 MP_Bcast               19                     12.
 MP_Allreduce          554                     10.
 MP_Alltoall          5746                 185198.
 MP_ISend             7802                   2763.
 MP_IRecv             7968                   2343.
 -------------------------------------------------------------------------------

 -------------------------------------------------------------------------------
 -                                                                             -
 -                                DBM STATISTICS                               -
 -                                                                             -
 -------------------------------------------------------------------------------
    M  x    N  x    K                                          COUNT     PERCENT
    ?  x    ?  x    ?                                          28604      47.94%
 >999  x   ??  x   ??                                           8712      14.60%
 >999  x    ?  x   ??                                           4356       7.30%
  ???  x  ???  x  ???                                           4206       7.05%
   ??  x   ??  x >999                                           3904       6.54%
    ?  x   ??  x >999                                           1952       3.27%
   ??  x    ?  x >999                                           1952       3.27%
 >999  x   ??  x    ?                                           1936       3.24%
  ???  x  ???  x >999                                           1080       1.81%
  ???  x >999  x  ???                                           1023       1.71%
    ?  x    ?  x >999                                            976       1.64%
 >999  x    ?  x    ?                                            968       1.62%
 -------------------------------------------------------------------------------

 -------------------------------------------------------------------------------
 -                                                                             -
 -                                GRID STATISTICS                              -
 -                                                                             -
 -------------------------------------------------------------------------------
 LP    KERNEL             BACKEND                              COUNT     PERCENT
 3     collocate ortho    CPU                                   7728      16.90%
 3     integrate ortho    CPU                                   7728      16.90%
 6     collocate ortho    CPU                                   4536       9.92%
 6     integrate ortho    CPU                                   4536       9.92%
 4     collocate ortho    CPU                                   3276       7.17%
 4     integrate ortho    CPU                                   3276       7.17%
 0     collocate ortho    CPU                                   3024       6.61%
 0     integrate ortho    CPU                                   3024       6.61%
 1     collocate ortho    CPU                                   2688       5.88%
 1     integrate ortho    CPU                                   2688       5.88%
 2     collocate general  CPU                                    924       2.02%
 2     integrate general  CPU                                    924       2.02%
 2     collocate ortho    CPU                                    672       1.47%
 2     integrate ortho    CPU                                    672       1.47%
 0     collocate general  CPU                                     11       0.02%
 0     integrate general  CPU                                     11       0.02%
 -------------------------------------------------------------------------------

 -------------------------------------------------------------------------------
 -                                                                             -
 -                          OFFLOAD MEMPOOL STATISTICS                         -
 -                                                                             -
 -------------------------------------------------------------------------------
 Memory consumption                Number of allocations  Used [MiB]  Size [MiB]
 Host                                                137         124         233
 -------------------------------------------------------------------------------

 MEMORY| Estimated peak process memory [MiB]                                1912

 -------------------------------------------------------------------------------
 ----                             MULTIGRID INFO                            ----
 -------------------------------------------------------------------------------
 count for grid        1:       30286357          cutoff [a.u.]          250.00
 count for grid        2:        4498371          cutoff [a.u.]           83.33
 count for grid        3:        3707905          cutoff [a.u.]           27.78
 count for grid        4:        1393394          cutoff [a.u.]            9.26
 total gridlevel count  :       39886027

 -------------------------------------------------------------------------------
 -                                                                             -
 -                         MESSAGE PASSING PERFORMANCE                         -
 -                                                                             -
 -------------------------------------------------------------------------------

 ROUTINE             CALLS      AVE VOLUME [Bytes]
 MP_Group             3005
 MP_Bcast             7477                 494046.
 MP_Allreduce        22173                  24483.
 MP_Sync              3955
 MP_Alltoall          4527                7434281.
 MP_SendRecv         32088                  69520.
 MP_ISendRecv        64558                  45315.
 MP_Wait             97352
 MP_comm_split        1620
 MP_ISend            36615                 380760.
 MP_IRecv            36991                 377313.
 -------------------------------------------------------------------------------


 -------------------------------------------------------------------------------
 -                                                                             -
 -                           R E F E R E N C E S                               -
 -                                                                             -
 -------------------------------------------------------------------------------
 
 CP2K version 2025.2 (Development Version), the CP2K developers group (2025).
 CP2K is freely available from https://www.cp2k.org/ .
 
 M. Graml, K. Zollner, D. Hernangómez-Pérez, P. E. Faria Junior, J. Wilhelm.
 J. Chem. Theory Comput. 20, 2202-2208 (2024).
 Low-scaling GW algorithm applied to twisted transition-metal dichalcogenide 
 heterobilayers.
 https://doi.org/10.1021/acs.jctc.3c01230

 T. D. Kuehne, M. Iannuzzi, M. Del Ben, V. V. Rybkin, P. Seewald, F. Stein, T. 
 Laino, R. Z. Khaliullin, O. Schuett, F. Schiffmann, D. Golze, J. Wilhelm, S. 
 Chulkov, M. H. Bani-Hashemian, V. Weber, U. Borstnik, M. Taillefumier, A. S. 
 Jakobovits, A. Lazzaro, H. Pabst, T. Mueller, R. Schade, M. Guidon, S. 
 Andermatt, N. Holmberg, G. K. Schenter, A. Hehn, A. Bussy, F. Belleflamme, G. 
 Tabacchi, A. Gloess, M. Lass, I. Bethune, C. J. Mundy, C. Plessl, M. Watkins, 
 J. VandeVondele, M. Krack, J. Hutter.
 J. Chem. Phys. 152, 194103 (2020).
 CP2K: An electronic structure and molecular dynamics software package - 
 Quickstep: Efficient and accurate electronic structure calculations.
 https://doi.org/10.1063/5.0007045

 O. Schuett, P. Messmer, J. Hutter, J. VandeVondele.
 Electronic Structure Calculations on Graphics Processing Units, 173-190 (2016).
 GPU-Accelerated Sparse Matrix-Matrix Multiplication for Linear Scaling Density 
 Functional Theory.
 https://doi.org/10.1002/9781118670712.ch8

 A. Heinecke, G. Henry, M. Hutchinson, H. Pabst.
 Proceedings of Intl. Supercomputing Conference, 981-991 (2016).
 LIBXSMM: Accelerating Small Matrix Multiplications by Runtime Code Generation.
 https://doi.org/10.1109/SC.2016.83

 J. Hutter, M. Iannuzzi, F. Schiffmann, J. VandeVondele.
 WIREs Comput Mol Sci. 4, 15-25 (2014).
 CP2K: atomistic simulations of condensed matter systems.
 https://doi.org/10.1002/wcms.1159

 U. Borstnik, J. VandeVondele, V. Weber, J. Hutter.
 Parallel Comput. 40, 47-58 (2014).
 Sparse matrix multiplication: The distributed block-compressed sparse row 
 library.
 https://doi.org/10.1016/j.parco.2014.03.012

 A. Marek, V. Blum, R. Johanni, V. Havu, B. Lang, T. Auckenthaler, A. Heinecke, 
 H. Bungartz, H. Lederer.
 J. Phys. Condens. Matter 26, 213201 (2014).
 The ELPA library: scalable parallel eigenvalue solutions for electronic 
 structure theory and computational science.
 https://doi.org/10.1088/0953-8984/26/21/213201

 M. Guidon, J. Hutter, J. VandeVondele.
 J. Chem. Theory Comput. 5, 3010-3021 (2009).
 Robust Periodic Hartree-Fock Exchange for Large-Scale Simulations Using 
 Gaussian Basis Sets.
 https://doi.org/10.1021/ct900494g

 M. Guidon, F. Schiffmann, J. Hutter, J. VandeVondele.
 J. Chem. Phys. 128, 214104 (2008).
 Ab initio molecular dynamics using hybrid density functionals.
 https://doi.org/10.1063/1.2931945

 L. Genovese, T. Deutsch, S. Goedecker.
 J. Chem. Phys. 127, 054704 (2007).
 Efficient and accurate three-dimensional Poisson solver for surface problems.
 https://doi.org/10.1063/1.2754685

 J. VandeVondele, J. Hutter.
 J. Chem. Phys. 127, 114105 (2007).
 Gaussian basis sets for accurate calculations on molecular systems in gas and 
 condensed phases.
 https://doi.org/10.1063/1.2770708

 L. Genovese, T. Deutsch, A. Neelov, S. Goedecker, G. Beylkin.
 J. Chem. Phys. 125, 074105 (2006).
 Efficient solution of Poisson's equation with free boundary conditions.
 https://doi.org/10.1063/1.2335442

 M. Frigo, S. G. Johnson.
 Proc. IEEE 93, 216-231 (2005).
 The design and implementation of FFTW3.
 https://doi.org/10.1109/JPROC.2004.840301

 M. Krack, M. Parrinello.
 Phys. Chem. Chem. Phys. 2, 2105-2112 (2000).
 All-electron ab-initio molecular dynamics.
 https://doi.org/10.1039/b001167n

 G. Lippert, J. Hutter, M. Parrinello.
 Theor. Chem. Acc. 103, 124-140 (1999).
 The Gaussian and augmented-plane-wave density functional method for ab initio 
 molecular dynamics simulations.
 https://doi.org/10.1007/s002140050523

 J. P. Perdew, K. Burke, M. Ernzerhof.
 Phys. Rev. Lett. 77, 3865-3868 (1996).
 Generalized gradient approximation made simple.
 https://doi.org/10.1103/PhysRevLett.77.3865


 -------------------------------------------------------------------------------
 -                                                                             -
 -                                T I M I N G                                  -
 -                                                                             -
 -------------------------------------------------------------------------------
 SUBROUTINE                       CALLS  ASD         SELF TIME        TOTAL TIME
                                MAXIMUM       AVERAGE  MAXIMUM  AVERAGE  MAXIMUM
 CP2K                                 1  1.0    0.015    0.025  197.884  197.895
 qs_energies                          1  2.0    0.000    0.000  197.421  197.431
 scf_env_do_scf                       1  3.0    0.000    0.000  101.101  101.107
 scf_env_do_scf_inner_loop           83  4.0    0.002    0.004  101.101  101.106
 qs_energies_properties               1  3.0    0.000    0.000   92.658   92.663
 post_scf_bandstructure               1  4.0    0.000    0.000   92.658   92.663
 gw                                   1  5.0    0.000    0.000   92.532   92.537
 gw_calc_large_cell_Gamma             1  6.0    0.000    0.000   90.734   90.748
 qs_ks_build_kohn_sham_matrix        84  7.0    0.011    0.014   81.999   82.023
 qs_ks_update_qs_env                 83  5.0    0.001    0.001   81.538   81.562
 rebuild_ks_matrix                   83  6.0    0.000    0.000   81.531   81.555
 mp_sync                           3955 12.1   37.862   47.197   37.862   47.197
 get_Sigma_c                          1  7.0    0.001    0.001   38.441   38.443
 dbt_total                          699  9.0    0.004    0.004   36.718   36.724
 dbt_contract                       243  9.9    0.008    0.012   33.862   33.867
 dbt_tas_multiply                   486 12.4    0.001    0.001   33.213   33.216
 dbt_tas_total                      486 13.4    0.055    0.066   33.202   33.204
 compute_3c_integrals               152  8.6    0.003    0.004   32.621   32.627
 get_mat_chi_Gamma_tau                1  7.0    0.001    0.001   31.452   31.483
 fft_wrap_pw1pw2                   1755 10.0    0.018    0.023   30.627   31.094
 fft_wrap_pw1pw2_250               1251 11.1    0.481    0.586   28.958   29.512
 fft3d_ps                          1755 12.0    3.211    4.536   28.910   29.459
 build_3c_integrals                 156  9.6   17.494   25.447   19.865   29.457
 hfx_ks_matrix                       84  8.0    0.001    0.002   29.098   29.113
 integrate_four_center               84  9.0    1.491    3.033   29.095   29.109
 mp_alltoall_z22v                  1755 14.0   24.533   25.008   24.533   25.008
 contract_to_Sigma                   61  8.0    0.001    0.001   23.735   23.736
 integrate_four_center_main          84 10.0    0.292    4.650    7.987   21.044
 pw_poisson_solve                    84  8.0    0.126    0.195   20.573   20.588
 get_W_MIC                            1  7.0    0.000    0.000   19.244   19.246
 compute_W_MIC                        1  8.0    0.000    0.000   19.244   19.246
 compute_fm_W_MIC_freq_j             30  9.0    0.000    0.000   17.424   17.428
 integrate_four_center_bin        19495 11.0    7.695   17.027    7.695   17.027
 qs_rho_update_rho_low               84  5.0    0.001    0.001   15.765   15.771
 dbt_tas_dbm                        486 14.4    0.001    0.001   15.637   15.638
 calculate_rho_elec                  84  6.0    0.056    0.084   15.289   15.294
 compute_3c_and_contract_W           31  8.0    0.000    0.000   14.424   14.425
 qs_vxc_create                       84  8.0    0.001    0.002   13.884   13.996
 xc_vxc_pw_create                    83  9.0    0.085    0.122   13.882   13.995
 cp_cfm_power                        30 10.0    0.001    0.005   13.503   13.553
 dbm_multiply                       486 16.4    9.308   13.399    9.308   13.399
 x_to_yz                            750 12.9    0.381    0.589   12.586   12.941
 cp_cfm_heevd                        32 10.8    0.000    0.000   12.914   12.929
 cp_cfm_heevd_base                   32 11.8   12.914   12.929   12.914   12.929
 yz_to_x                            669 13.2    0.251    0.300   12.521   12.849
 xc_pw_derive                       498 11.0    0.002    0.003   11.097   11.305
 density_rs2pw                       84  7.0    0.003    0.003   10.234   11.019
 ps_wavelet_solve                    84  9.0    2.319    3.185   10.014   10.258
 xc_pw_divergence                    83 10.0    0.001    0.002    7.301    7.451
 dbt_tas_mm_2                       182 15.2    0.000    0.001    7.227    7.228
 dbm_redistribute                   729 13.6    4.172    6.805    4.172    6.805
 sum_up_and_integrate                84  8.0    0.001    0.001    6.400    6.728
 integrate_v_rspace                  84  9.0    0.002    0.002    6.371    6.704
 xc_rho_set_and_dset_create          83 10.0    0.089    0.111    6.305    6.615
 mp_waitany                       27660 11.5    5.380    6.508    5.380    6.508
 abc_contract_xsmm               200928 10.6    2.034    6.450    2.034    6.450
 mp_alltoall_d45                     85 10.0    5.532    6.317    5.532    6.317
 potential_pw2rs                     84 10.0    0.006    0.007    6.211    6.237
 G_times_3c                          60  8.0    0.001    0.010    6.014    6.023
 mp_alltoall_d54                     84 10.0    3.679    5.972    3.679    5.972
 transfer_rs2pw                     421  8.4    0.008    0.012    5.129    5.904
 prepare_gapw_den                    84  8.0    0.001    0.002    5.531    5.603
 convert_to_new_pgrid              1458 14.4    1.543    2.650    4.148    5.483
 transfer_pw2rs                     421 10.6    0.003    0.004    4.986    5.229
 grid_collocate_task_list            84  7.0    4.826    5.189    4.826    5.189
 mp_alltoall_d11v                  2970 10.6    4.271    4.927    4.271    4.927
 dbt_tas_mm_3N                       62 15.5    0.000    0.000    3.144    4.517
 calc_screening_functions             1 10.0    3.570    3.695    3.971    4.092
 gspace_mixing                       82  5.0    0.055    0.082    4.037    4.039
 parallel_gemm_cfm                  283 10.4    0.000    0.000    3.693    3.742
 parallel_gemm_cfm_cosma            283 11.4    3.693    3.742    3.693    3.742
 compute_cfm_W_ikp_freq_j            30 10.0    0.001    0.001    3.705    3.734
 dbt_tas_create_split              1618 15.2    0.003    0.005    3.176    3.640
 dbt_tas_create_split_rows_or_c    1618 16.2    0.005    0.006    3.173    3.636
 put_rho0_on_grid                    84  9.0    0.060    0.090    3.553    3.624
 transfer_rs2pw_250                 169 10.0    0.814    0.890    2.813    3.541
 transfer_pw2rs_250                 169 11.0    0.751    0.977    2.959    3.372
 mp_sum_l                          3124 13.7    2.121    3.267    2.121    3.267
 integrate_vhg0_rspace               84  8.0    0.159    0.198    2.803    2.964
 init_scf_run                         1  3.0    0.000    0.000    2.841    2.842
 mp_sum_d                          6302  6.9    2.254    2.715    2.254    2.715
 dbm_reserve_blocks                2920 15.9    0.977    2.639    0.977    2.639
 reshape_mm_compatible              486 14.4    0.007    0.009    2.373    2.621
 dbt_copy                           456 10.1    0.005    0.007    1.461    2.608
 dbt_tas_reserve_blocks_index      2434 15.0    0.003    0.004    0.959    2.604
 change_split                       729 14.9    0.003    0.007    2.345    2.592
 scf_env_initial_rho_setup            1  4.0    0.000    0.000    2.513    2.565
 cp_fm_diag_elpa                     89  7.1    0.000    0.000    2.335    2.348
 dbt_tas_copy                       486 13.8    0.508    1.137    1.042    2.330
 cp_fm_diag_elpa_base                89  8.1    2.221    2.300    2.305    2.305
 parallel_gemm_fm_cosma             350  8.2    2.092    2.233    2.092    2.233
 qs_scf_new_mos                      83  5.0    0.001    0.001    2.198    2.211
 broyden_mixing                      82  6.0    2.040    2.093    2.113    2.159
 dbt_tas_reshape                    638 14.5    0.008    0.009    1.313    2.135
 dbt_tas_estimate_result_nze        243 12.9    0.226    0.524    2.058    2.058
 dbt_tas_distribution_new          1774 14.6    0.684    0.711    1.904    2.021
 mp_waitall_1                     79335 12.0    1.508    1.933    1.508    1.933
 cp2k_distribution_to_z_slices       84  9.0    0.158    0.189    1.787    1.922
 eigensolver_symm                    83  6.0    0.006    0.007    1.912    1.919
 dbt_tas_mm_3T                      122 15.5    0.000    0.000    0.848    1.918
 dbt_tas_mm_1N                      120 15.5    0.000    0.000    0.843    1.888
 create_and_init_bs_env_for_gw        1  6.0    0.000    0.000    1.799    1.836
 mp_sum_dm                         2854  7.7    1.552    1.714    1.552    1.714
 reshape_mm_small                   486 14.4    0.025    0.028    1.557    1.704
 pw_poisson_rebuild                  84  9.0    0.000    0.000    1.651    1.699
 ps_wavelet_create                    1 10.0    0.000    0.000    1.651    1.699
 RS_z_slice_distribution              1 11.0    0.103    0.114    1.651    1.699
 mp_comm_dup                       1379 17.6    1.216    1.684    1.216    1.684
 dbt_reshape                        274 10.9    0.509    0.954    0.983    1.674
 cp_fm_write_unformatted            126  9.9    0.737    1.261    0.894    1.645
 mp_waitall_2                      2856 15.8    1.011    1.635    1.011    1.635
 calculate_rho_atom                 336  9.0    0.371    1.627    0.371    1.627
 transfer_rs2pw_90                   84  9.0    0.202    0.282    1.501    1.612
 dbt_tas_reserve_blocks_templat     972 14.4    0.002    0.008    0.537    1.519
 fm_write                           121  9.0    0.003    0.080    0.885    1.494
 mp_sum_dv                         9372  8.7    1.392    1.463    1.392    1.463
 transfer_pw2rs_90                   84 12.0    0.160    0.209    1.187    1.386
 fft_wrap_pw1pw2_90                 168 10.5    0.017    0.023    1.165    1.366
 mp_bcast_i                        2211 13.1    1.238    1.242    1.238    1.242
 dbt_tas_communicate_buffer        1124 16.5    0.008    0.016    0.717    1.196
 get_Sigma_x                          1  7.0    0.000    0.000    1.174    1.177
 compute_Sigma_x                      1  8.0    0.000    0.000    1.174    1.177
 multiply_fm_W_MIC_time_with_Mi       2  9.0    0.000    0.000    1.164    1.165
 mp_send_dv                         126 10.9    0.155    1.119    0.155    1.119
 calculate_vxc_atom                  84  8.0    0.026    0.108    1.118    1.119
 write_matrix                        91  8.0    0.000    0.000    0.525    1.086
 gaVxcgb_GC                         166  9.0    0.028    0.996    0.028    0.996
 G_occ_vir                          121  8.0    0.001    0.001    0.886    0.992
 dbt_reserve_blocks_index           824 12.3    0.001    0.002    0.322    0.949
 fm_to_local_tensor                 152  8.0    0.002    0.002    0.883    0.892
 copy_dbcsr_to_fm                   277  8.3    0.003    0.004    0.811    0.874
 xc_functional_eval                 415 10.9    0.001    0.001    0.528    0.869
 pbe_lda_eval                       415 11.9    0.527    0.868    0.527    0.868
 transfer_rs2pw_30                   84  9.0    0.325    0.354    0.679    0.866
 dbt_tas_replicate                  486 14.4    0.074    0.163    0.647    0.834
 transfer_pw2rs_30                   84 12.0    0.182    0.231    0.676    0.808
 qs_energies_init_hamiltonians        1  3.0    0.000    0.000    0.782    0.782
 check_sparsity_3c                    1  7.0    0.000    0.000    0.771    0.772
 powell_optimize                 740903 11.0    0.739    0.765    0.739    0.765
 build_core_hamiltonian_matrix        1  4.0    0.000    0.000    0.765    0.765
 overlap_condnum                      1  5.0    0.000    0.000    0.762    0.764
 mp_max_i                          1042  6.7    0.560    0.756    0.560    0.756
 calc_pair_dist_radii                 1 10.0    0.378    0.390    0.717    0.733
 dbt_tas_reshape_buffer_obtain      638 15.5    0.292    0.559    0.403    0.729
 dbt_tas_reshape_communicate_bu     638 15.5    0.007    0.009    0.268    0.719
 rs_grid_zero                       422 11.2    0.567    0.718    0.567    0.718
 cp_fm_power                          3  8.7    0.003    0.006    0.692    0.700
 dbcsr_complete_redistribute        595  9.4    0.019    0.029    0.627    0.694
 mp_alltoall_i                     1917 14.5    0.624    0.663    0.624    0.663
 cp_cfm_cholesky_invert              31 11.0    0.643    0.652    0.643    0.652
 dbt_tas_reshape_buffer_fill        638 15.5    0.306    0.623    0.306    0.623
 dbt_reserve_blocks_index_array     516 12.0    0.001    0.001    0.189    0.617
 mp_sendrecv_dv                   32088 10.0    0.425    0.616    0.425    0.616
 pw_copy                           1255 10.6    0.522    0.614    0.522    0.614
 dbt_communicate_buffer             274 11.9    0.003    0.005    0.336    0.606
 pw_derive                          750 11.3    0.522    0.588    0.522    0.588
 mp_comm_split_direct              1620 17.2    0.568    0.570    0.568    0.570
 dbm_add                            486 14.4    0.169    0.556    0.169    0.556
 setup_time_and_frequency_minim       1  7.0    0.000    0.000    0.518    0.555
 pw_gather_p                        837 11.8    0.431    0.507    0.431    0.507
 cp_cfm_cholesky_decompose           35 10.7    0.487    0.504    0.487    0.504
 dbt_tas_replicate_communicate_     304 15.5    0.002    0.003    0.294    0.497
 dbt_create_matrix                  152  9.0    0.001    0.001    0.474    0.487
 dbt_crop                           212 11.0    0.149    0.302    0.228    0.486
 calculate_rho_atom_coeff            84  6.0    0.040    0.081    0.476    0.477
 mp_cart_create                    3288 14.7    0.408    0.469    0.410    0.471
 compute_V_xc                         1  7.0    0.000    0.000    0.469    0.470
 dbt_tas_merge                      182 14.2    0.073    0.149    0.291    0.456
 grid_integrate_task_list            84 10.0    0.055    0.454    0.055    0.454
 pw_scatter_p                       918 12.1    0.379    0.431    0.379    0.431
 dbt_distribution_new_expert        316 10.5    0.002    0.002    0.429    0.429
 rs_gather_matrices                  84 10.0    0.001    0.004    0.103    0.429
 compute_QP_energies                  1  7.0    0.000    0.000    0.422    0.424
 mp_alltoall_z11v                   336 13.5    0.360    0.416    0.360    0.416
 mp_alltoall_i22                    878 10.4    0.347    0.413    0.347    0.413
 calculate_rho0_atom                336  9.0    0.394    0.409    0.394    0.409
 mp_isend_dv                      38941 12.2    0.205    0.402    0.205    0.402
 fft_wrap_pw1pw2_30                 168 10.5    0.002    0.003    0.314    0.398
 mp_isend_dm3                      3372 11.5    0.094    0.374    0.094    0.374
 mp_recv_dv                        4782 10.9    0.002    0.372    0.002    0.372
 mp_bcast_dm                       1849  9.0    0.361    0.369    0.361    0.369
 pw_poisson_set                      85  9.0    0.001    0.002    0.347    0.362
 integrate_four_center_getP          84 10.0    0.011    0.014    0.310    0.346
 dbcsr_desymmetrize_deep            283  9.3    0.005    0.011    0.285    0.344
 arnoldi_conjugate_gradient           5  6.0    0.006    0.007    0.343    0.343
 to_ikp_and_mo                       62  8.0    0.000    0.000    0.340    0.341
 pw_integral_ab_c1d_c1d_gs           84  9.0    0.109    0.125    0.239    0.340
 alloc_block_3c                     156 10.6    0.003    0.005    0.139    0.338
 mp_irecv_dv                      36362 12.2    0.046    0.336    0.046    0.336
 dbt_tas_reshape_alltoall           638 15.5    0.001    0.001    0.323    0.330
 pw_copy_to_array                   837 11.8    0.247    0.313    0.247    0.313
 fm_Gamma_ao_to_cfm_ikp_mo           62  9.0    0.000    0.000    0.302    0.311
 update_ks_atom                      84  8.0    0.026    0.058    0.272    0.299
 build_3c_integrals_put_dbcsr       912 10.6    0.080    0.283    0.080    0.283
 dbt_tas_merge_communicate_buff     182 15.2    0.001    0.002    0.165    0.276
 rs_scatter_matrices                 84  7.0    0.000    0.001    0.035    0.257
 create_qs_kind_set                   1  2.0    0.000    0.000    0.244    0.245
 read_qs_kind                         4  3.0    0.097    0.121    0.244    0.245
 integrate_four_center_load          84 10.0    0.000    0.000    0.149    0.243
 hfx_load_balance                     1 11.0    0.000    0.000    0.149    0.243
 xz_to_yz                           168 11.0    0.005    0.014    0.206    0.238
 pw_copy_from_array                 918 12.1    0.142    0.236    0.142    0.236
 mp_alltoall_i11v                  2068 10.4    0.137    0.233    0.137    0.233
 hfx_load_balance_range               1 12.0    0.000    0.000    0.136    0.231
 yz_to_xz                           168 14.0    0.007    0.011    0.167    0.231
 write_mo_set_to_restart             83  5.0    0.001    0.006    0.012    0.226
 write_mo_set_low                     5  6.0    0.000    0.000    0.011    0.224
 dbt_tas_replicate_alltoall         304 15.5    0.000    0.000    0.181    0.223
 dbcsr_sym_matrix_vector_mult      3015  7.0    0.014    0.014    0.191    0.219
 get_l_sq_wghts_cos_tf_t_to_w         1  8.0    0.176    0.215    0.176    0.215
 pw_axpy                            835  9.3    0.185    0.213    0.185    0.213
 compute_fm_chi_Gamma_freq           30 10.0    0.000    0.001    0.189    0.209
 compute_MinvVsqrt_Vsqrt              1  9.0    0.000    0.000    0.180    0.203
 Vh_1c_gg_integrals                  84  8.0    0.009    0.191    0.199    0.203
 mp_cart_sub                        572 10.3    0.192    0.202    0.192    0.202
 pw_zero                            500 10.3    0.132    0.189    0.132    0.189
 fft_wrap_pw1pw2_10                 168 10.5    0.001    0.001    0.172    0.187
 dbt_copy_nocomm                     30 10.0    0.062    0.109    0.096    0.182
 get_l_sq_wghts_sin_tf_t_to_w         1  8.0    0.173    0.180    0.173    0.180
 transfer_pw2rs_10                   84 12.0    0.048    0.054    0.161    0.175
 integrate_four_center_dist_KS       84 10.0    0.012    0.015    0.174    0.174
 get_l_sq_wghts_cos_tf_w_to_t         1  8.0    0.167    0.171    0.169    0.173
 qs_init_subsys                       1  2.0    0.001    0.002    0.172    0.172
 calculate_dm_sparse                 83  6.0    0.000    0.001    0.152    0.169
 cp_dbcsr_plus_fm_fm_t               83  7.0    0.001    0.001    0.151    0.168
 qs_env_setup                         1  3.0    0.000    0.000    0.162    0.163
 qs_env_rebuild_pw_env                2  3.5    0.000    0.000    0.161    0.163
 pw_env_rebuild                       1  5.0    0.000    0.000    0.161    0.162
 cp_fm_symm                          83  7.0    0.149    0.161    0.149    0.161
 copy_fm_to_dbcsr                   318  8.5    0.001    0.001    0.108    0.154
 RI_2c_integral_mat                   4  9.8    0.000    0.000    0.130    0.151
 parser_read_line                 98990  4.0    0.008    0.009    0.148    0.150
 mp_rank_compare                   1755 13.0    0.142    0.150    0.142    0.150
 parser_read_line_low               113  5.0    0.002    0.038    0.139    0.142
 broadcast_input_information        113  6.0    0.009    0.010    0.137    0.140
 pw_grid_setup                        4  6.0    0.000    0.000    0.136    0.137
 pw_grid_setup_internal               4  7.0    0.001    0.001    0.136    0.137
 transfer_rs2pw_10                   84  9.0    0.057    0.065    0.128    0.136
 dbcsr_add_d                       5489  7.7    0.002    0.002    0.025    0.135
 cp_fm_uplo_to_full                  92  9.1    0.069    0.133    0.069    0.133
 dbcsr_add_anytype                 5489  8.7    0.005    0.044    0.024    0.133
 dbcsr_rep_row_to_rep_col_vec      3015  8.0    0.005    0.006    0.065    0.130
 cp_cfm_geeig                         2  7.0    0.000    0.000    0.124    0.124
 dbcsr_multiply_generic              83  8.0    0.002    0.003    0.109    0.118
 mp_bcast_b_src                     172  7.6    0.025    0.112    0.025    0.112
 dbcsr_col_vec_to_rep_row          3015  8.0    0.006    0.007    0.054    0.093
 mp_sum_i                           648 14.2    0.067    0.089    0.067    0.089
 dbcsr_dot                          167  8.0    0.001    0.002    0.035    0.087
 dbt_reserve_blocks_template         30 11.0    0.000    0.000    0.034    0.085
 dbt_create_new                     158 10.0    0.001    0.001    0.074    0.084
 calculate_first_density_matrix       1  5.0    0.000    0.000    0.032    0.084
 calculate_atomic_block_dm            1  6.0    0.001    0.001    0.032    0.084
 global_matrix_to_local_matrix      152  9.0    0.001    0.002    0.066    0.084
 cube_transpose_2                   168 11.0    0.002    0.002    0.039    0.082
 dbt_pgrid_create_expert            320 11.5    0.001    0.001    0.075    0.079
 mp_bcast_i_src                     452  7.0    0.071    0.078    0.071    0.078
 dbt_tas_create_new                2345 14.5    0.018    0.076    0.018    0.076
 send_sizes_1                       152 10.0    0.000    0.000    0.052    0.073
 fill_fm_Sigma_c_Gamma_time           1  8.0    0.000    0.000    0.073    0.073
 dos_pdos_ldos                        1  5.0    0.000    0.000    0.069    0.072
 local_dbt_to_global_mat             91  8.0    0.000    0.000    0.054    0.071
 mp_sum_iv                           31  7.5    0.063    0.070    0.063    0.070
 dbcsr_finalize                    8360 11.1    0.007    0.023    0.024    0.065
 compute_V_k_by_lattice_sum           1  9.0    0.000    0.000    0.057    0.065
 dbcsr_iterator_stop              41578  9.0    0.018    0.060    0.020    0.063
 dbt_tas_mp_comm                    243 12.9    0.002    0.002    0.059    0.060
 mp_comm_free                      6914 13.6    0.048    0.057    0.048    0.057
 create_and_init_bs_env               1  5.0    0.000    0.000    0.057    0.057
 dbt_nd_mp_comm                     152 10.0    0.000    0.000    0.053    0.056
 multiply_cannon                     83  9.0    0.005    0.006    0.046    0.055
 dbt_create_template                860  9.9    0.007    0.055    0.007    0.055
 mp_bcast_am_src                    113  7.0    0.048    0.051    0.052    0.054
 mp_isendrecv_dv                  64176 12.0    0.025    0.052    0.025    0.052
 pw_grid_remap                        4  8.0    0.001    0.001    0.050    0.052
 cp_cfm_uplo_to_full                 31 11.0    0.001    0.001    0.030    0.052
 cp_cfm_transpose                    31 12.0    0.029    0.051    0.029    0.051
 dbt_tas_merge_alltoall             182 15.2    0.000    0.000    0.049    0.051
 mp_sum_im3                           6  9.5    0.049    0.051    0.049    0.051
 local_matrix_to_global_matrix       91  9.0    0.000    0.000    0.031    0.051
 mp_irecv_dm3                      3372 11.5    0.014    0.049    0.014    0.049
 make_m2s                           166  9.0    0.002    0.002    0.045    0.048
 diagonalize_ks_matrix                1  6.0    0.000    0.000    0.046    0.046
 cp_fm_geeig_canon                    1  7.0    0.000    0.000    0.046    0.046
 cp_fm_redistribute_start            89  8.1    0.000    0.000    0.030    0.043
 scale_and_distribute               168 10.0    0.032    0.042    0.032    0.042
 cube_transpose_1                   168 14.0    0.002    0.008    0.023    0.042
 cp_fm_copy_general                   5 10.8    0.000    0.000    0.016    0.042
 cp_fm_start_copy_general             5 11.8    0.001    0.001    0.015    0.041
 mp_allgather_i                      10 12.8    0.015    0.041    0.015    0.041
 scf_post_calculation_gpw             1  3.0    0.000    0.000    0.037    0.037
 write_available_results              1  4.0    0.000    0.000    0.037    0.037
 write_mo_free_results                1  5.0    0.001    0.002    0.037    0.037
 build_2c_integrals                   4 10.8    0.002    0.020    0.004    0.036
 multiply_cannon_loop                83 10.0    0.003    0.004    0.027    0.036
 make_images                        166 10.0    0.003    0.008    0.032    0.036
 mp_sum_im                           11  8.0    0.035    0.035    0.035    0.035
 dbt_tas_reshape_get_coord          638 15.5    0.006    0.034    0.006    0.034
 dbcsr_copy                       12763  7.6    0.011    0.025    0.020    0.034
 vxc_of_r_new                       332  9.0    0.000    0.005    0.001    0.033
 mp_bcast_dv                       3015  9.0    0.019    0.032    0.019    0.032
 hybrid_alltoall_any                449 10.9    0.002    0.002    0.012    0.031
 pw_grid_sort                         4  8.0    0.021    0.021    0.029    0.030
 dbcsr_merge_all                   6743 12.1    0.008    0.021    0.012    0.028
 dbcsr_iterator_start             41578  9.0    0.015    0.021    0.018    0.027
 make_images_sizes                  166 11.0    0.000    0.000    0.024    0.027
 mp_alltoall_i44                    166 12.0    0.024    0.027    0.024    0.027
 check_for_restart_files              1  7.0    0.025    0.026    0.025    0.026
 comm_data                           91 10.0    0.000    0.000    0.012    0.024
 mp_max_iv                            3 10.7    0.005    0.023    0.005    0.023
 MIC_contribution_from_ikp           30 10.0    0.011    0.020    0.014    0.023
 dbcsr_create_new                 15977  8.9    0.013    0.019    0.017    0.023
 kpoint_init_cell_index               2  9.5    0.000    0.000    0.005    0.022
 pw_scale                           333  9.5    0.018    0.022    0.018    0.022
 mp_max_d                            89  7.0    0.016    0.022    0.016    0.022
 multiply_cannon_metrocomm3        1992 11.0    0.002    0.002    0.012    0.022
 cp_fm_norm                           2  6.0    0.010    0.020    0.010    0.020
 -------------------------------------------------------------------------------

 The number of warnings for this run is : 1
 
 -------------------------------------------------------------------------------
  **** **** ******  **  PROGRAM ENDED AT                 2025-10-25 20:04:50.294
 ***** ** ***  *** **   PROGRAM RAN ON                                    cn1209
 **    ****   ******    PROGRAM RAN BY                                  metdyn02
 ***** **    ** ** **   PROGRAM PROCESS ID                               1855891
  **** **  *******  **  PROGRAM STOPPED IN /scratch/hpc-prf-metdyn/metdyn02_Remi
                                           /04_mol/Benchmark_mol_low_scal/aUKBqs
                                           EOTmq69kFe5R_nOg/5k_set_final_qzvp/MO
                                           HGUM/aug-cc-pV5Z-DZVP
