&GLOBAL
  PROJECT  MoS2
  PRINT_LEVEL MEDIUM
  RUN_TYPE ENERGY
  &TIMINGS
     THRESHOLD 0.0001
  &END
  TRACE
  TRACE_MASTER
  TRACE_ROUTINES compute_chi dbt_create_2c_R dbt_create_3c_R1_R2 dbt_create G_occ_vir contract_M_occ_vir_to_chi local_dbt_to_global_fm
&END GLOBAL
&FORCE_EVAL
  METHOD Quickstep
  &PROPERTIES
  &TDDFPT                          ! input section for TDDFPT
       KERNEL FULL                       ! specification of the underlying kernel matrix K
                                         ! FULL kernel is for GGA and hybrid functional computations
                                         ! sTDA kernel is referring to a semi-empirical sTDA computation
       NSTATES 20                      ! specifies the number of excited states to be computed
       MAX_ITER   100                  ! number of iterations for the Davidson algorithm
       CONVERGENCE [eV] 1.0e-6         ! convergence threshold in eV
       &XC                            ! If choosing kernel FULL, the underlying functional can be
        &XC_FUNCTIONAL PBE0             ! specified by adding an XC section
        &END XC_FUNCTIONAL              ! The functional can be chosen independently from the chosen
  	 &HF
          &MEMORY 
            MAX_MEMORY 8000
  	   &END MEMORY
  	 &END HF
       &END XC                        ! GS functional except when choosing ADMM 
    &END TDDFPT
    &END PROPERTIES
  &DFT
    BASIS_SET_FILE_NAME /hppfs/scratch/04/di38fab/04_TMD/BASIS_AUG_MOLOPT/BASIS_ALL_MOLOPT_AUG_for_excited_states
    BASIS_SET_FILE_NAME /hppfs/scratch/04/di38fab/04_TMD/BASIS_AUG_MOLOPT/BASIS_ALL_MOLOPT_AUG_for_excited_states_RI
    BASIS_SET_FILE_NAME /hppfs/scratch/04/di38fab/04_TMD/BASIS_AUG_MOLOPT/aug-cc-pVZ
    BASIS_SET_FILE_NAME /hppfs/scratch/04/di38fab/04_TMD/BASIS_AUG_MOLOPT/aug-cc-pVZ-TOTRI
    BASIS_SET_FILE_NAME /hppfs/scratch/04/di38fab/04_TMD/BASIS_AUG_MOLOPT/cc-pVZ
    BASIS_SET_FILE_NAME /hppfs/scratch/04/di38fab/04_TMD/BASIS_AUG_MOLOPT/cc-pVZ-RI
    BASIS_SET_FILE_NAME /hppfs/scratch/04/di38fab/04_TMD/BASIS_AUG_MOLOPT/BASIS_MOLOPT_UZH
    SORT_BASIS EXP
    POTENTIAL_FILE_NAME  /hppfs/work/pn36zo/di38fab/cp2k/data/ALL_POTENTIALS 
    CHARGE 0
    &MGRID
      CUTOFF  500
      REL_CUTOFF  100
    &END MGRID
    &POISSON
      PERIODIC NONE
      POISSON_SOLVER WAVELET
    &END POISSON
    &QS
      METHOD GAPW
      EPS_DEFAULT 1.0E-12
      EPS_PGF_ORB 1.0E-12
    &END QS
    &SCF
      SCF_GUESS ATOMIC
      EPS_SCF 1.0E-6
      MAX_SCF 500
      &PRINT
        &RESTART ON
        &END
      &END
      ADDED_MOS -1
      &MIXING
          METHOD BROYDEN_MIXING
          ALPHA 0.1
          BETA 1.5
          NBROYDEN 8
      &END
      CHOLESKY OFF
    &END SCF
    &XC
      &XC_FUNCTIONAL PBE0
      &END XC_FUNCTIONAL
      &HF
         &MEMORY
          MAX_MEMORY 8000
         &END MEMORY
      &END HF
!      &WF_CORRELATION
!      	&RI_RPA
!	  QUADRATURE_POINTS 100
!      	  &GW
!	    CORR_MOS_OCC -1
!	    CORR_MOS_VIRT -1
!	    &BSE
!              BSE_DIAG_METHOD FULLDIAG
!              TDA OFF
!            &END BSE 
!          &END GW	
!        &END RI_RPA
!      &END WF_CORRELATION
    &END XC
    &PRINT
    &OVERLAP_CONDITION ON
    DIAGONALIZATION T
    &END OVERLAP_CONDITION
    &END PRINT
  &END DFT
    &SUBSYS
    &CELL
      ABC                 30 30 30
      ALPHA_BETA_GAMMA    90 90 90
      PERIODIC NONE
    &END CELL

     &KIND C
      BASIS_SET ORB cc-pVDZ
      BASIS_SET RI_AUX cc-pVDZ-RIFIT
      POTENTIAL ALL
     &END KIND

     &KIND H
      BASIS_SET ORB cc-pVDZ
      BASIS_SET RI_AUX cc-pVDZ-RIFIT
      POTENTIAL ALL
     &END KIND

     &KIND N
      BASIS_SET ORB cc-pVDZ
      BASIS_SET RI_AUX cc-pVDZ-RIFIT
      POTENTIAL ALL
     &END KIND

     &KIND O
      BASIS_SET ORB cc-pVDZ
      BASIS_SET RI_AUX cc-pVDZ-RIFIT
      POTENTIAL ALL
     &END KIND

    




    &TOPOLOGY
     &CENTER_COORDINATES T
     &END CENTER_COORDINATES
    &END TOPOLOGY


    &COORD
     C 8.81031892 10.79191230 17.31122633
     H 8.46443459 11.63448280 16.69829751
     H 8.01808866 10.53483833 18.02731353
     H 8.98909224 9.92824614 16.66130870
     C 10.10344682 11.15796206 18.05017759
     H 9.14443639 12.21177664 19.63057618
     H 10.42548261 10.28618182 18.64483839
     N 9.89694836 12.28829983 18.94940474
     C 10.50456723 13.50332275 18.94576383
     O 10.18754363 14.40362493 19.71894894
     C 11.23221961 11.37787725 17.04360618
     O 11.54924323 10.47757505 16.27042111
     C 11.63334003 13.72323793 17.93919243
     H 12.59235048 12.66942333 16.35879386
     H 11.31130424 14.59501816 17.34453163
     N 11.83983850 12.59290015 17.03996529
     C 12.92646792 14.08928771 18.67814369
     H 13.27235226 13.24671722 19.29107252
     H 13.71869818 14.34636168 17.96205649
     H 12.74769459 14.95295387 19.32806132
&END COORD
  &END SUBSYS
&END FORCE_EVAL
